edge(1, 2).
edge(2, 3).
edge(3, 4).
edge(4, 5).
edge(5, 6).
edge(6, 7).
edge(7, 8).
edge(8, 9).
edge(9, 10).
edge(10, 11).
edge(11, 12).
edge(12, 13).
edge(13, 14).
edge(14, 15).
edge(15, 16).
edge(16, 17).
edge(17, 18).
edge(18, 19).
edge(19, 20).
edge(20, 21).
edge(21, 22).
edge(22, 23).
edge(23, 24).
edge(24, 25).
edge(25, 26).
edge(26, 27).
edge(27, 28).
edge(28, 29).
edge(29, 30).
edge(30, 31).
edge(31, 32).
edge(32, 33).
edge(33, 34).
edge(34, 35).
edge(35, 36).
edge(36, 37).
edge(37, 38).
edge(38, 39).
edge(39, 40).
edge(40, 1).
edge(1, 4).
edge(1, 7).
edge(1, 10).
edge(1, 13).
edge(1, 16).
edge(1, 19).
edge(1, 22).
edge(1, 25).
edge(1, 28).
edge(1, 31).
edge(2, 5).
edge(2, 8).
edge(2, 11).
edge(2, 14).
edge(2, 17).
edge(2, 20).
edge(2, 23).
edge(2, 26).
edge(2, 29).
edge(2, 32).
edge(3, 6).
edge(3, 9).
edge(3, 12).
edge(3, 15).
edge(3, 18).
edge(3, 21).
edge(3, 24).
edge(3, 27).
edge(3, 30).
edge(3, 33).
edge(4, 7).
edge(4, 10).
edge(4, 13).
edge(4, 16).
edge(4, 19).
edge(4, 22).
edge(4, 25).
edge(4, 28).
edge(4, 31).
edge(4, 34).
edge(5, 8).
edge(5, 11).
edge(5, 14).
edge(5, 17).
edge(5, 20).
edge(5, 23).
edge(5, 26).
edge(5, 29).
edge(5, 32).
edge(5, 35).
edge(6, 9).
edge(6, 12).
edge(6, 15).
edge(6, 18).
edge(6, 21).
edge(6, 24).
edge(6, 27).
edge(6, 30).
edge(6, 33).
edge(6, 36).
edge(7, 10).
edge(7, 13).
edge(7, 16).
edge(7, 19).
edge(7, 22).
edge(7, 25).
edge(7, 28).
edge(7, 31).
edge(7, 34).
edge(7, 37).
edge(8, 11).
edge(8, 14).
edge(8, 17).
edge(8, 20).
edge(8, 23).
edge(8, 26).
edge(8, 29).
edge(8, 32).
edge(8, 35).
edge(8, 38).
edge(9, 12).
edge(9, 15).
edge(9, 18).
edge(9, 21).
edge(9, 24).
edge(9, 27).
edge(9, 30).
edge(9, 33).
edge(9, 36).
edge(9, 39).
edge(10, 13).
edge(10, 16).
edge(10, 19).
edge(10, 22).
edge(10, 25).
edge(10, 28).
edge(10, 31).
edge(10, 34).
edge(10, 37).
edge(10, 40).
edge(11, 14).
edge(11, 17).
edge(11, 20).
edge(11, 23).
edge(11, 26).
edge(11, 29).
edge(11, 32).
edge(11, 35).
edge(11, 38).
edge(11, 1).
edge(12, 15).
edge(12, 18).
edge(12, 21).
edge(12, 24).
edge(12, 27).
edge(12, 30).
edge(12, 33).
edge(12, 36).
edge(12, 39).
edge(12, 2).
edge(13, 16).
edge(13, 19).
edge(13, 22).
edge(13, 25).
edge(13, 28).
edge(13, 31).
edge(13, 34).
edge(13, 37).
edge(13, 40).
edge(13, 3).
edge(14, 17).
edge(14, 20).
edge(14, 23).
edge(14, 26).
edge(14, 29).
edge(14, 32).
edge(14, 35).
edge(14, 38).
edge(14, 1).
edge(14, 4).
edge(15, 18).
edge(15, 21).
edge(15, 24).
edge(15, 27).
edge(15, 30).
edge(15, 33).
edge(15, 36).
edge(15, 39).
edge(15, 2).
edge(15, 5).
edge(16, 19).
edge(16, 22).
edge(16, 25).
edge(16, 28).
edge(16, 31).
edge(16, 34).
edge(16, 37).
edge(16, 40).
edge(16, 3).
edge(16, 6).
edge(17, 20).
edge(17, 23).
edge(17, 26).
edge(17, 29).
edge(17, 32).
edge(17, 35).
edge(17, 38).
edge(17, 1).
edge(17, 4).
edge(17, 7).
edge(18, 21).
edge(18, 24).
edge(18, 27).
edge(18, 30).
edge(18, 33).
edge(18, 36).
edge(18, 39).
edge(18, 2).
edge(18, 5).
edge(18, 8).
edge(19, 22).
edge(19, 25).
edge(19, 28).
edge(19, 31).
edge(19, 34).
edge(19, 37).
edge(19, 40).
edge(19, 3).
edge(19, 6).
edge(19, 9).
edge(20, 23).
edge(20, 26).
edge(20, 29).
edge(20, 32).
edge(20, 35).
edge(20, 38).
edge(20, 1).
edge(20, 4).
edge(20, 7).
edge(20, 10).
edge(21, 24).
edge(21, 27).
edge(21, 30).
edge(21, 33).
edge(21, 36).
edge(21, 39).
edge(21, 2).
edge(21, 5).
edge(21, 8).
edge(21, 11).
edge(22, 25).
edge(22, 28).
edge(22, 31).
edge(22, 34).
edge(22, 37).
edge(22, 40).
edge(22, 3).
edge(22, 6).
edge(22, 9).
edge(22, 12).
edge(23, 26).
edge(23, 29).
edge(23, 32).
edge(23, 35).
edge(23, 38).
edge(23, 1).
edge(23, 4).
edge(23, 7).
edge(23, 10).
edge(23, 13).
edge(24, 27).
edge(24, 30).
edge(24, 33).
edge(24, 36).
edge(24, 39).
edge(24, 2).
edge(24, 5).
edge(24, 8).
edge(24, 11).
edge(24, 14).
edge(25, 28).
edge(25, 31).
edge(25, 34).
edge(25, 37).
edge(25, 40).
edge(25, 3).
edge(25, 6).
edge(25, 9).
edge(25, 12).
edge(25, 15).
edge(26, 29).
edge(26, 32).
edge(26, 35).
edge(26, 38).
edge(26, 1).
edge(26, 4).
edge(26, 7).
edge(26, 10).
edge(26, 13).
edge(26, 16).
edge(27, 30).
edge(27, 33).
edge(27, 36).
edge(27, 39).
edge(27, 2).
edge(27, 5).
edge(27, 8).
edge(27, 11).
edge(27, 14).
edge(27, 17).
edge(28, 31).
edge(28, 34).
edge(28, 37).
edge(28, 40).
edge(28, 3).
edge(28, 6).
edge(28, 9).
edge(28, 12).
edge(28, 15).
edge(28, 18).
edge(29, 32).
edge(29, 35).
edge(29, 38).
edge(29, 1).
edge(29, 4).
edge(29, 7).
edge(29, 10).
edge(29, 13).
edge(29, 16).
edge(29, 19).
edge(30, 33).
edge(30, 36).
edge(30, 39).
edge(30, 2).
edge(30, 5).
edge(30, 8).
edge(30, 11).
edge(30, 14).
edge(30, 17).
edge(30, 20).
edge(31, 34).
edge(31, 37).
edge(31, 40).
edge(31, 3).
edge(31, 6).
edge(31, 9).
edge(31, 12).
edge(31, 15).
edge(31, 18).
edge(31, 21).
edge(32, 35).
edge(32, 38).
edge(32, 1).
edge(32, 4).
edge(32, 7).
edge(32, 10).
edge(32, 13).
edge(32, 16).
edge(32, 19).
edge(32, 22).
edge(33, 36).
edge(33, 39).
edge(33, 2).
edge(33, 5).
edge(33, 8).
edge(33, 11).
edge(33, 14).
edge(33, 17).
edge(33, 20).
edge(33, 23).
edge(34, 37).
edge(34, 40).
edge(34, 3).
edge(34, 6).
edge(34, 9).
edge(34, 12).
edge(34, 15).
edge(34, 18).
edge(34, 21).
edge(34, 24).
edge(35, 38).
edge(35, 1).
edge(35, 4).
edge(35, 7).
edge(35, 10).
edge(35, 13).
edge(35, 16).
edge(35, 19).
edge(35, 22).
edge(35, 25).
edge(36, 39).
edge(36, 2).
edge(36, 5).
edge(36, 8).
edge(36, 11).
edge(36, 14).
edge(36, 17).
edge(36, 20).
edge(36, 23).
edge(36, 26).
edge(37, 40).
edge(37, 3).
edge(37, 6).
edge(37, 9).
edge(37, 12).
edge(37, 15).
edge(37, 18).
edge(37, 21).
edge(37, 24).
edge(37, 27).
edge(38, 1).
edge(38, 4).
edge(38, 7).
edge(38, 10).
edge(38, 13).
edge(38, 16).
edge(38, 19).
edge(38, 22).
edge(38, 25).
edge(38, 28).
edge(39, 2).
edge(39, 5).
edge(39, 8).
edge(39, 11).
edge(39, 14).
edge(39, 17).
edge(39, 20).
edge(39, 23).
edge(39, 26).
edge(39, 29).
edge(40, 3).
edge(40, 6).
edge(40, 9).
edge(40, 12).
edge(40, 15).
edge(40, 18).
edge(40, 21).
edge(40, 24).
edge(40, 27).
edge(40, 30).
