edge(1, 2).
edge(2, 3).
edge(3, 4).
edge(4, 5).
edge(5, 6).
edge(6, 7).
edge(7, 8).
edge(8, 9).
edge(9, 10).
edge(10, 1).
edge(1, 1).
edge(1, 1).
edge(1, 1).
edge(1, 1).
edge(1, 1).
edge(1, 1).
edge(1, 1).
edge(1, 1).
edge(1, 1).
edge(1, 1).
edge(2, 2).
edge(2, 2).
edge(2, 2).
edge(2, 2).
edge(2, 2).
edge(2, 2).
edge(2, 2).
edge(2, 2).
edge(2, 2).
edge(2, 2).
edge(3, 3).
edge(3, 3).
edge(3, 3).
edge(3, 3).
edge(3, 3).
edge(3, 3).
edge(3, 3).
edge(3, 3).
edge(3, 3).
edge(3, 3).
edge(4, 4).
edge(4, 4).
edge(4, 4).
edge(4, 4).
edge(4, 4).
edge(4, 4).
edge(4, 4).
edge(4, 4).
edge(4, 4).
edge(4, 4).
edge(5, 5).
edge(5, 5).
edge(5, 5).
edge(5, 5).
edge(5, 5).
edge(5, 5).
edge(5, 5).
edge(5, 5).
edge(5, 5).
edge(5, 5).
edge(6, 6).
edge(6, 6).
edge(6, 6).
edge(6, 6).
edge(6, 6).
edge(6, 6).
edge(6, 6).
edge(6, 6).
edge(6, 6).
edge(6, 6).
edge(7, 7).
edge(7, 7).
edge(7, 7).
edge(7, 7).
edge(7, 7).
edge(7, 7).
edge(7, 7).
edge(7, 7).
edge(7, 7).
edge(7, 7).
edge(8, 8).
edge(8, 8).
edge(8, 8).
edge(8, 8).
edge(8, 8).
edge(8, 8).
edge(8, 8).
edge(8, 8).
edge(8, 8).
edge(8, 8).
edge(9, 9).
edge(9, 9).
edge(9, 9).
edge(9, 9).
edge(9, 9).
edge(9, 9).
edge(9, 9).
edge(9, 9).
edge(9, 9).
edge(9, 9).
edge(10, 10).
edge(10, 10).
edge(10, 10).
edge(10, 10).
edge(10, 10).
edge(10, 10).
edge(10, 10).
edge(10, 10).
edge(10, 10).
edge(10, 10).
