edge(1, 2).
edge(2, 3).
edge(3, 4).
edge(4, 5).
edge(5, 6).
edge(6, 7).
edge(7, 8).
edge(8, 9).
edge(9, 10).
edge(10, 11).
edge(11, 12).
edge(12, 13).
edge(13, 14).
edge(14, 15).
edge(15, 16).
edge(16, 17).
edge(17, 18).
edge(18, 19).
edge(19, 20).
edge(20, 21).
edge(21, 22).
edge(22, 23).
edge(23, 24).
edge(24, 25).
edge(25, 26).
edge(26, 27).
edge(27, 28).
edge(28, 29).
edge(29, 30).
edge(30, 1).
edge(1, 3).
edge(1, 5).
edge(1, 7).
edge(1, 9).
edge(1, 11).
edge(1, 13).
edge(1, 15).
edge(1, 17).
edge(1, 19).
edge(1, 21).
edge(2, 4).
edge(2, 6).
edge(2, 8).
edge(2, 10).
edge(2, 12).
edge(2, 14).
edge(2, 16).
edge(2, 18).
edge(2, 20).
edge(2, 22).
edge(3, 5).
edge(3, 7).
edge(3, 9).
edge(3, 11).
edge(3, 13).
edge(3, 15).
edge(3, 17).
edge(3, 19).
edge(3, 21).
edge(3, 23).
edge(4, 6).
edge(4, 8).
edge(4, 10).
edge(4, 12).
edge(4, 14).
edge(4, 16).
edge(4, 18).
edge(4, 20).
edge(4, 22).
edge(4, 24).
edge(5, 7).
edge(5, 9).
edge(5, 11).
edge(5, 13).
edge(5, 15).
edge(5, 17).
edge(5, 19).
edge(5, 21).
edge(5, 23).
edge(5, 25).
edge(6, 8).
edge(6, 10).
edge(6, 12).
edge(6, 14).
edge(6, 16).
edge(6, 18).
edge(6, 20).
edge(6, 22).
edge(6, 24).
edge(6, 26).
edge(7, 9).
edge(7, 11).
edge(7, 13).
edge(7, 15).
edge(7, 17).
edge(7, 19).
edge(7, 21).
edge(7, 23).
edge(7, 25).
edge(7, 27).
edge(8, 10).
edge(8, 12).
edge(8, 14).
edge(8, 16).
edge(8, 18).
edge(8, 20).
edge(8, 22).
edge(8, 24).
edge(8, 26).
edge(8, 28).
edge(9, 11).
edge(9, 13).
edge(9, 15).
edge(9, 17).
edge(9, 19).
edge(9, 21).
edge(9, 23).
edge(9, 25).
edge(9, 27).
edge(9, 29).
edge(10, 12).
edge(10, 14).
edge(10, 16).
edge(10, 18).
edge(10, 20).
edge(10, 22).
edge(10, 24).
edge(10, 26).
edge(10, 28).
edge(10, 30).
edge(11, 13).
edge(11, 15).
edge(11, 17).
edge(11, 19).
edge(11, 21).
edge(11, 23).
edge(11, 25).
edge(11, 27).
edge(11, 29).
edge(11, 1).
edge(12, 14).
edge(12, 16).
edge(12, 18).
edge(12, 20).
edge(12, 22).
edge(12, 24).
edge(12, 26).
edge(12, 28).
edge(12, 30).
edge(12, 2).
edge(13, 15).
edge(13, 17).
edge(13, 19).
edge(13, 21).
edge(13, 23).
edge(13, 25).
edge(13, 27).
edge(13, 29).
edge(13, 1).
edge(13, 3).
edge(14, 16).
edge(14, 18).
edge(14, 20).
edge(14, 22).
edge(14, 24).
edge(14, 26).
edge(14, 28).
edge(14, 30).
edge(14, 2).
edge(14, 4).
edge(15, 17).
edge(15, 19).
edge(15, 21).
edge(15, 23).
edge(15, 25).
edge(15, 27).
edge(15, 29).
edge(15, 1).
edge(15, 3).
edge(15, 5).
edge(16, 18).
edge(16, 20).
edge(16, 22).
edge(16, 24).
edge(16, 26).
edge(16, 28).
edge(16, 30).
edge(16, 2).
edge(16, 4).
edge(16, 6).
edge(17, 19).
edge(17, 21).
edge(17, 23).
edge(17, 25).
edge(17, 27).
edge(17, 29).
edge(17, 1).
edge(17, 3).
edge(17, 5).
edge(17, 7).
edge(18, 20).
edge(18, 22).
edge(18, 24).
edge(18, 26).
edge(18, 28).
edge(18, 30).
edge(18, 2).
edge(18, 4).
edge(18, 6).
edge(18, 8).
edge(19, 21).
edge(19, 23).
edge(19, 25).
edge(19, 27).
edge(19, 29).
edge(19, 1).
edge(19, 3).
edge(19, 5).
edge(19, 7).
edge(19, 9).
edge(20, 22).
edge(20, 24).
edge(20, 26).
edge(20, 28).
edge(20, 30).
edge(20, 2).
edge(20, 4).
edge(20, 6).
edge(20, 8).
edge(20, 10).
edge(21, 23).
edge(21, 25).
edge(21, 27).
edge(21, 29).
edge(21, 1).
edge(21, 3).
edge(21, 5).
edge(21, 7).
edge(21, 9).
edge(21, 11).
edge(22, 24).
edge(22, 26).
edge(22, 28).
edge(22, 30).
edge(22, 2).
edge(22, 4).
edge(22, 6).
edge(22, 8).
edge(22, 10).
edge(22, 12).
edge(23, 25).
edge(23, 27).
edge(23, 29).
edge(23, 1).
edge(23, 3).
edge(23, 5).
edge(23, 7).
edge(23, 9).
edge(23, 11).
edge(23, 13).
edge(24, 26).
edge(24, 28).
edge(24, 30).
edge(24, 2).
edge(24, 4).
edge(24, 6).
edge(24, 8).
edge(24, 10).
edge(24, 12).
edge(24, 14).
edge(25, 27).
edge(25, 29).
edge(25, 1).
edge(25, 3).
edge(25, 5).
edge(25, 7).
edge(25, 9).
edge(25, 11).
edge(25, 13).
edge(25, 15).
edge(26, 28).
edge(26, 30).
edge(26, 2).
edge(26, 4).
edge(26, 6).
edge(26, 8).
edge(26, 10).
edge(26, 12).
edge(26, 14).
edge(26, 16).
edge(27, 29).
edge(27, 1).
edge(27, 3).
edge(27, 5).
edge(27, 7).
edge(27, 9).
edge(27, 11).
edge(27, 13).
edge(27, 15).
edge(27, 17).
edge(28, 30).
edge(28, 2).
edge(28, 4).
edge(28, 6).
edge(28, 8).
edge(28, 10).
edge(28, 12).
edge(28, 14).
edge(28, 16).
edge(28, 18).
edge(29, 1).
edge(29, 3).
edge(29, 5).
edge(29, 7).
edge(29, 9).
edge(29, 11).
edge(29, 13).
edge(29, 15).
edge(29, 17).
edge(29, 19).
edge(30, 2).
edge(30, 4).
edge(30, 6).
edge(30, 8).
edge(30, 10).
edge(30, 12).
edge(30, 14).
edge(30, 16).
edge(30, 18).
edge(30, 20).
