edge(1, 2).
edge(2, 3).
edge(3, 4).
edge(4, 5).
edge(5, 6).
edge(6, 7).
edge(7, 8).
edge(8, 9).
edge(9, 10).
edge(10, 11).
edge(11, 12).
edge(12, 13).
edge(13, 14).
edge(14, 15).
edge(15, 16).
edge(16, 17).
edge(17, 18).
edge(18, 19).
edge(19, 20).
edge(20, 21).
edge(21, 22).
edge(22, 23).
edge(23, 24).
edge(24, 25).
edge(25, 26).
edge(26, 27).
edge(27, 28).
edge(28, 29).
edge(29, 30).
edge(30, 31).
edge(31, 32).
edge(32, 33).
edge(33, 34).
edge(34, 35).
edge(35, 36).
edge(36, 37).
edge(37, 38).
edge(38, 39).
edge(39, 40).
edge(40, 41).
edge(41, 42).
edge(42, 43).
edge(43, 44).
edge(44, 45).
edge(45, 46).
edge(46, 47).
edge(47, 48).
edge(48, 49).
edge(49, 50).
edge(50, 51).
edge(51, 52).
edge(52, 53).
edge(53, 54).
edge(54, 55).
edge(55, 56).
edge(56, 57).
edge(57, 58).
edge(58, 59).
edge(59, 60).
edge(60, 61).
edge(61, 62).
edge(62, 63).
edge(63, 64).
edge(64, 65).
edge(65, 66).
edge(66, 67).
edge(67, 68).
edge(68, 69).
edge(69, 70).
edge(70, 71).
edge(71, 72).
edge(72, 73).
edge(73, 74).
edge(74, 75).
edge(75, 76).
edge(76, 77).
edge(77, 78).
edge(78, 79).
edge(79, 80).
edge(80, 81).
edge(81, 82).
edge(82, 83).
edge(83, 84).
edge(84, 85).
edge(85, 86).
edge(86, 87).
edge(87, 88).
edge(88, 89).
edge(89, 90).
edge(90, 91).
edge(91, 92).
edge(92, 93).
edge(93, 94).
edge(94, 95).
edge(95, 96).
edge(96, 97).
edge(97, 98).
edge(98, 99).
edge(99, 100).
edge(100, 101).
edge(101, 102).
edge(102, 103).
edge(103, 104).
edge(104, 105).
edge(105, 106).
edge(106, 107).
edge(107, 108).
edge(108, 109).
edge(109, 110).
edge(110, 111).
edge(111, 112).
edge(112, 113).
edge(113, 114).
edge(114, 115).
edge(115, 116).
edge(116, 117).
edge(117, 118).
edge(118, 119).
edge(119, 120).
edge(120, 121).
edge(121, 122).
edge(122, 123).
edge(123, 124).
edge(124, 125).
edge(125, 126).
edge(126, 127).
edge(127, 128).
edge(128, 129).
edge(129, 130).
edge(130, 131).
edge(131, 132).
edge(132, 133).
edge(133, 134).
edge(134, 135).
edge(135, 136).
edge(136, 137).
edge(137, 138).
edge(138, 139).
edge(139, 140).
edge(140, 141).
edge(141, 142).
edge(142, 143).
edge(143, 144).
edge(144, 145).
edge(145, 146).
edge(146, 147).
edge(147, 148).
edge(148, 149).
edge(149, 150).
edge(150, 151).
edge(151, 152).
edge(152, 153).
edge(153, 154).
edge(154, 155).
edge(155, 156).
edge(156, 157).
edge(157, 158).
edge(158, 159).
edge(159, 160).
edge(160, 161).
edge(161, 162).
edge(162, 163).
edge(163, 164).
edge(164, 165).
edge(165, 166).
edge(166, 167).
edge(167, 168).
edge(168, 169).
edge(169, 170).
edge(170, 171).
edge(171, 172).
edge(172, 173).
edge(173, 174).
edge(174, 175).
edge(175, 176).
edge(176, 177).
edge(177, 178).
edge(178, 179).
edge(179, 180).
edge(180, 181).
edge(181, 182).
edge(182, 183).
edge(183, 184).
edge(184, 185).
edge(185, 186).
edge(186, 187).
edge(187, 188).
edge(188, 189).
edge(189, 190).
edge(190, 191).
edge(191, 192).
edge(192, 193).
edge(193, 194).
edge(194, 195).
edge(195, 196).
edge(196, 197).
edge(197, 198).
edge(198, 199).
edge(199, 200).
edge(200, 201).
edge(201, 202).
edge(202, 203).
edge(203, 204).
edge(204, 205).
edge(205, 206).
edge(206, 207).
edge(207, 208).
edge(208, 209).
edge(209, 210).
edge(210, 211).
edge(211, 212).
edge(212, 213).
edge(213, 214).
edge(214, 215).
edge(215, 216).
edge(216, 217).
edge(217, 218).
edge(218, 219).
edge(219, 220).
edge(220, 221).
edge(221, 222).
edge(222, 223).
edge(223, 224).
edge(224, 225).
edge(225, 226).
edge(226, 227).
edge(227, 228).
edge(228, 229).
edge(229, 230).
edge(230, 231).
edge(231, 232).
edge(232, 233).
edge(233, 234).
edge(234, 235).
edge(235, 236).
edge(236, 237).
edge(237, 238).
edge(238, 239).
edge(239, 240).
edge(240, 241).
edge(241, 242).
edge(242, 243).
edge(243, 244).
edge(244, 245).
edge(245, 246).
edge(246, 247).
edge(247, 248).
edge(248, 249).
edge(249, 250).
edge(250, 251).
edge(251, 252).
edge(252, 253).
edge(253, 254).
edge(254, 255).
edge(255, 256).
edge(256, 257).
edge(257, 258).
edge(258, 259).
edge(259, 260).
edge(260, 261).
edge(261, 262).
edge(262, 263).
edge(263, 264).
edge(264, 265).
edge(265, 266).
edge(266, 267).
edge(267, 268).
edge(268, 269).
edge(269, 270).
edge(270, 271).
edge(271, 272).
edge(272, 273).
edge(273, 274).
edge(274, 275).
edge(275, 276).
edge(276, 277).
edge(277, 278).
edge(278, 279).
edge(279, 280).
edge(280, 281).
edge(281, 282).
edge(282, 283).
edge(283, 284).
edge(284, 285).
edge(285, 286).
edge(286, 287).
edge(287, 288).
edge(288, 289).
edge(289, 290).
edge(290, 291).
edge(291, 292).
edge(292, 293).
edge(293, 294).
edge(294, 295).
edge(295, 296).
edge(296, 297).
edge(297, 298).
edge(298, 299).
edge(299, 300).
edge(300, 301).
edge(301, 302).
edge(302, 303).
edge(303, 304).
edge(304, 305).
edge(305, 306).
edge(306, 307).
edge(307, 308).
edge(308, 309).
edge(309, 310).
edge(310, 311).
edge(311, 312).
edge(312, 313).
edge(313, 314).
edge(314, 315).
edge(315, 316).
edge(316, 317).
edge(317, 318).
edge(318, 319).
edge(319, 320).
edge(320, 321).
edge(321, 322).
edge(322, 323).
edge(323, 324).
edge(324, 325).
edge(325, 326).
edge(326, 327).
edge(327, 328).
edge(328, 329).
edge(329, 330).
edge(330, 331).
edge(331, 332).
edge(332, 333).
edge(333, 334).
edge(334, 335).
edge(335, 336).
edge(336, 337).
edge(337, 338).
edge(338, 339).
edge(339, 340).
edge(340, 341).
edge(341, 342).
edge(342, 343).
edge(343, 344).
edge(344, 345).
edge(345, 346).
edge(346, 347).
edge(347, 348).
edge(348, 349).
edge(349, 350).
edge(350, 351).
edge(351, 352).
edge(352, 353).
edge(353, 354).
edge(354, 355).
edge(355, 356).
edge(356, 357).
edge(357, 358).
edge(358, 359).
edge(359, 360).
edge(360, 361).
edge(361, 362).
edge(362, 363).
edge(363, 364).
edge(364, 365).
edge(365, 366).
edge(366, 367).
edge(367, 368).
edge(368, 369).
edge(369, 370).
edge(370, 371).
edge(371, 372).
edge(372, 373).
edge(373, 374).
edge(374, 375).
edge(375, 376).
edge(376, 377).
edge(377, 378).
edge(378, 379).
edge(379, 380).
edge(380, 381).
edge(381, 382).
edge(382, 383).
edge(383, 384).
edge(384, 385).
edge(385, 386).
edge(386, 387).
edge(387, 388).
edge(388, 389).
edge(389, 390).
edge(390, 391).
edge(391, 392).
edge(392, 393).
edge(393, 394).
edge(394, 395).
edge(395, 396).
edge(396, 397).
edge(397, 398).
edge(398, 399).
edge(399, 400).
edge(400, 401).
edge(401, 402).
edge(402, 403).
edge(403, 404).
edge(404, 405).
edge(405, 406).
edge(406, 407).
edge(407, 408).
edge(408, 409).
edge(409, 410).
edge(410, 411).
edge(411, 412).
edge(412, 413).
edge(413, 414).
edge(414, 415).
edge(415, 416).
edge(416, 417).
edge(417, 418).
edge(418, 419).
edge(419, 420).
edge(420, 421).
edge(421, 422).
edge(422, 423).
edge(423, 424).
edge(424, 425).
edge(425, 426).
edge(426, 427).
edge(427, 428).
edge(428, 429).
edge(429, 430).
edge(430, 431).
edge(431, 432).
edge(432, 433).
edge(433, 434).
edge(434, 435).
edge(435, 436).
edge(436, 437).
edge(437, 438).
edge(438, 439).
edge(439, 440).
edge(440, 441).
edge(441, 442).
edge(442, 443).
edge(443, 444).
edge(444, 445).
edge(445, 446).
edge(446, 447).
edge(447, 448).
edge(448, 449).
edge(449, 450).
edge(450, 1).
edge(1, 41).
edge(1, 81).
edge(1, 121).
edge(1, 161).
edge(1, 201).
edge(1, 241).
edge(1, 281).
edge(1, 321).
edge(1, 361).
edge(1, 401).
edge(2, 42).
edge(2, 82).
edge(2, 122).
edge(2, 162).
edge(2, 202).
edge(2, 242).
edge(2, 282).
edge(2, 322).
edge(2, 362).
edge(2, 402).
edge(3, 43).
edge(3, 83).
edge(3, 123).
edge(3, 163).
edge(3, 203).
edge(3, 243).
edge(3, 283).
edge(3, 323).
edge(3, 363).
edge(3, 403).
edge(4, 44).
edge(4, 84).
edge(4, 124).
edge(4, 164).
edge(4, 204).
edge(4, 244).
edge(4, 284).
edge(4, 324).
edge(4, 364).
edge(4, 404).
edge(5, 45).
edge(5, 85).
edge(5, 125).
edge(5, 165).
edge(5, 205).
edge(5, 245).
edge(5, 285).
edge(5, 325).
edge(5, 365).
edge(5, 405).
edge(6, 46).
edge(6, 86).
edge(6, 126).
edge(6, 166).
edge(6, 206).
edge(6, 246).
edge(6, 286).
edge(6, 326).
edge(6, 366).
edge(6, 406).
edge(7, 47).
edge(7, 87).
edge(7, 127).
edge(7, 167).
edge(7, 207).
edge(7, 247).
edge(7, 287).
edge(7, 327).
edge(7, 367).
edge(7, 407).
edge(8, 48).
edge(8, 88).
edge(8, 128).
edge(8, 168).
edge(8, 208).
edge(8, 248).
edge(8, 288).
edge(8, 328).
edge(8, 368).
edge(8, 408).
edge(9, 49).
edge(9, 89).
edge(9, 129).
edge(9, 169).
edge(9, 209).
edge(9, 249).
edge(9, 289).
edge(9, 329).
edge(9, 369).
edge(9, 409).
edge(10, 50).
edge(10, 90).
edge(10, 130).
edge(10, 170).
edge(10, 210).
edge(10, 250).
edge(10, 290).
edge(10, 330).
edge(10, 370).
edge(10, 410).
edge(11, 51).
edge(11, 91).
edge(11, 131).
edge(11, 171).
edge(11, 211).
edge(11, 251).
edge(11, 291).
edge(11, 331).
edge(11, 371).
edge(11, 411).
edge(12, 52).
edge(12, 92).
edge(12, 132).
edge(12, 172).
edge(12, 212).
edge(12, 252).
edge(12, 292).
edge(12, 332).
edge(12, 372).
edge(12, 412).
edge(13, 53).
edge(13, 93).
edge(13, 133).
edge(13, 173).
edge(13, 213).
edge(13, 253).
edge(13, 293).
edge(13, 333).
edge(13, 373).
edge(13, 413).
edge(14, 54).
edge(14, 94).
edge(14, 134).
edge(14, 174).
edge(14, 214).
edge(14, 254).
edge(14, 294).
edge(14, 334).
edge(14, 374).
edge(14, 414).
edge(15, 55).
edge(15, 95).
edge(15, 135).
edge(15, 175).
edge(15, 215).
edge(15, 255).
edge(15, 295).
edge(15, 335).
edge(15, 375).
edge(15, 415).
edge(16, 56).
edge(16, 96).
edge(16, 136).
edge(16, 176).
edge(16, 216).
edge(16, 256).
edge(16, 296).
edge(16, 336).
edge(16, 376).
edge(16, 416).
edge(17, 57).
edge(17, 97).
edge(17, 137).
edge(17, 177).
edge(17, 217).
edge(17, 257).
edge(17, 297).
edge(17, 337).
edge(17, 377).
edge(17, 417).
edge(18, 58).
edge(18, 98).
edge(18, 138).
edge(18, 178).
edge(18, 218).
edge(18, 258).
edge(18, 298).
edge(18, 338).
edge(18, 378).
edge(18, 418).
edge(19, 59).
edge(19, 99).
edge(19, 139).
edge(19, 179).
edge(19, 219).
edge(19, 259).
edge(19, 299).
edge(19, 339).
edge(19, 379).
edge(19, 419).
edge(20, 60).
edge(20, 100).
edge(20, 140).
edge(20, 180).
edge(20, 220).
edge(20, 260).
edge(20, 300).
edge(20, 340).
edge(20, 380).
edge(20, 420).
edge(21, 61).
edge(21, 101).
edge(21, 141).
edge(21, 181).
edge(21, 221).
edge(21, 261).
edge(21, 301).
edge(21, 341).
edge(21, 381).
edge(21, 421).
edge(22, 62).
edge(22, 102).
edge(22, 142).
edge(22, 182).
edge(22, 222).
edge(22, 262).
edge(22, 302).
edge(22, 342).
edge(22, 382).
edge(22, 422).
edge(23, 63).
edge(23, 103).
edge(23, 143).
edge(23, 183).
edge(23, 223).
edge(23, 263).
edge(23, 303).
edge(23, 343).
edge(23, 383).
edge(23, 423).
edge(24, 64).
edge(24, 104).
edge(24, 144).
edge(24, 184).
edge(24, 224).
edge(24, 264).
edge(24, 304).
edge(24, 344).
edge(24, 384).
edge(24, 424).
edge(25, 65).
edge(25, 105).
edge(25, 145).
edge(25, 185).
edge(25, 225).
edge(25, 265).
edge(25, 305).
edge(25, 345).
edge(25, 385).
edge(25, 425).
edge(26, 66).
edge(26, 106).
edge(26, 146).
edge(26, 186).
edge(26, 226).
edge(26, 266).
edge(26, 306).
edge(26, 346).
edge(26, 386).
edge(26, 426).
edge(27, 67).
edge(27, 107).
edge(27, 147).
edge(27, 187).
edge(27, 227).
edge(27, 267).
edge(27, 307).
edge(27, 347).
edge(27, 387).
edge(27, 427).
edge(28, 68).
edge(28, 108).
edge(28, 148).
edge(28, 188).
edge(28, 228).
edge(28, 268).
edge(28, 308).
edge(28, 348).
edge(28, 388).
edge(28, 428).
edge(29, 69).
edge(29, 109).
edge(29, 149).
edge(29, 189).
edge(29, 229).
edge(29, 269).
edge(29, 309).
edge(29, 349).
edge(29, 389).
edge(29, 429).
edge(30, 70).
edge(30, 110).
edge(30, 150).
edge(30, 190).
edge(30, 230).
edge(30, 270).
edge(30, 310).
edge(30, 350).
edge(30, 390).
edge(30, 430).
edge(31, 71).
edge(31, 111).
edge(31, 151).
edge(31, 191).
edge(31, 231).
edge(31, 271).
edge(31, 311).
edge(31, 351).
edge(31, 391).
edge(31, 431).
edge(32, 72).
edge(32, 112).
edge(32, 152).
edge(32, 192).
edge(32, 232).
edge(32, 272).
edge(32, 312).
edge(32, 352).
edge(32, 392).
edge(32, 432).
edge(33, 73).
edge(33, 113).
edge(33, 153).
edge(33, 193).
edge(33, 233).
edge(33, 273).
edge(33, 313).
edge(33, 353).
edge(33, 393).
edge(33, 433).
edge(34, 74).
edge(34, 114).
edge(34, 154).
edge(34, 194).
edge(34, 234).
edge(34, 274).
edge(34, 314).
edge(34, 354).
edge(34, 394).
edge(34, 434).
edge(35, 75).
edge(35, 115).
edge(35, 155).
edge(35, 195).
edge(35, 235).
edge(35, 275).
edge(35, 315).
edge(35, 355).
edge(35, 395).
edge(35, 435).
edge(36, 76).
edge(36, 116).
edge(36, 156).
edge(36, 196).
edge(36, 236).
edge(36, 276).
edge(36, 316).
edge(36, 356).
edge(36, 396).
edge(36, 436).
edge(37, 77).
edge(37, 117).
edge(37, 157).
edge(37, 197).
edge(37, 237).
edge(37, 277).
edge(37, 317).
edge(37, 357).
edge(37, 397).
edge(37, 437).
edge(38, 78).
edge(38, 118).
edge(38, 158).
edge(38, 198).
edge(38, 238).
edge(38, 278).
edge(38, 318).
edge(38, 358).
edge(38, 398).
edge(38, 438).
edge(39, 79).
edge(39, 119).
edge(39, 159).
edge(39, 199).
edge(39, 239).
edge(39, 279).
edge(39, 319).
edge(39, 359).
edge(39, 399).
edge(39, 439).
edge(40, 80).
edge(40, 120).
edge(40, 160).
edge(40, 200).
edge(40, 240).
edge(40, 280).
edge(40, 320).
edge(40, 360).
edge(40, 400).
edge(40, 440).
edge(41, 81).
edge(41, 121).
edge(41, 161).
edge(41, 201).
edge(41, 241).
edge(41, 281).
edge(41, 321).
edge(41, 361).
edge(41, 401).
edge(41, 441).
edge(42, 82).
edge(42, 122).
edge(42, 162).
edge(42, 202).
edge(42, 242).
edge(42, 282).
edge(42, 322).
edge(42, 362).
edge(42, 402).
edge(42, 442).
edge(43, 83).
edge(43, 123).
edge(43, 163).
edge(43, 203).
edge(43, 243).
edge(43, 283).
edge(43, 323).
edge(43, 363).
edge(43, 403).
edge(43, 443).
edge(44, 84).
edge(44, 124).
edge(44, 164).
edge(44, 204).
edge(44, 244).
edge(44, 284).
edge(44, 324).
edge(44, 364).
edge(44, 404).
edge(44, 444).
edge(45, 85).
edge(45, 125).
edge(45, 165).
edge(45, 205).
edge(45, 245).
edge(45, 285).
edge(45, 325).
edge(45, 365).
edge(45, 405).
edge(45, 445).
edge(46, 86).
edge(46, 126).
edge(46, 166).
edge(46, 206).
edge(46, 246).
edge(46, 286).
edge(46, 326).
edge(46, 366).
edge(46, 406).
edge(46, 446).
edge(47, 87).
edge(47, 127).
edge(47, 167).
edge(47, 207).
edge(47, 247).
edge(47, 287).
edge(47, 327).
edge(47, 367).
edge(47, 407).
edge(47, 447).
edge(48, 88).
edge(48, 128).
edge(48, 168).
edge(48, 208).
edge(48, 248).
edge(48, 288).
edge(48, 328).
edge(48, 368).
edge(48, 408).
edge(48, 448).
edge(49, 89).
edge(49, 129).
edge(49, 169).
edge(49, 209).
edge(49, 249).
edge(49, 289).
edge(49, 329).
edge(49, 369).
edge(49, 409).
edge(49, 449).
edge(50, 90).
edge(50, 130).
edge(50, 170).
edge(50, 210).
edge(50, 250).
edge(50, 290).
edge(50, 330).
edge(50, 370).
edge(50, 410).
edge(50, 450).
edge(51, 91).
edge(51, 131).
edge(51, 171).
edge(51, 211).
edge(51, 251).
edge(51, 291).
edge(51, 331).
edge(51, 371).
edge(51, 411).
edge(51, 1).
edge(52, 92).
edge(52, 132).
edge(52, 172).
edge(52, 212).
edge(52, 252).
edge(52, 292).
edge(52, 332).
edge(52, 372).
edge(52, 412).
edge(52, 2).
edge(53, 93).
edge(53, 133).
edge(53, 173).
edge(53, 213).
edge(53, 253).
edge(53, 293).
edge(53, 333).
edge(53, 373).
edge(53, 413).
edge(53, 3).
edge(54, 94).
edge(54, 134).
edge(54, 174).
edge(54, 214).
edge(54, 254).
edge(54, 294).
edge(54, 334).
edge(54, 374).
edge(54, 414).
edge(54, 4).
edge(55, 95).
edge(55, 135).
edge(55, 175).
edge(55, 215).
edge(55, 255).
edge(55, 295).
edge(55, 335).
edge(55, 375).
edge(55, 415).
edge(55, 5).
edge(56, 96).
edge(56, 136).
edge(56, 176).
edge(56, 216).
edge(56, 256).
edge(56, 296).
edge(56, 336).
edge(56, 376).
edge(56, 416).
edge(56, 6).
edge(57, 97).
edge(57, 137).
edge(57, 177).
edge(57, 217).
edge(57, 257).
edge(57, 297).
edge(57, 337).
edge(57, 377).
edge(57, 417).
edge(57, 7).
edge(58, 98).
edge(58, 138).
edge(58, 178).
edge(58, 218).
edge(58, 258).
edge(58, 298).
edge(58, 338).
edge(58, 378).
edge(58, 418).
edge(58, 8).
edge(59, 99).
edge(59, 139).
edge(59, 179).
edge(59, 219).
edge(59, 259).
edge(59, 299).
edge(59, 339).
edge(59, 379).
edge(59, 419).
edge(59, 9).
edge(60, 100).
edge(60, 140).
edge(60, 180).
edge(60, 220).
edge(60, 260).
edge(60, 300).
edge(60, 340).
edge(60, 380).
edge(60, 420).
edge(60, 10).
edge(61, 101).
edge(61, 141).
edge(61, 181).
edge(61, 221).
edge(61, 261).
edge(61, 301).
edge(61, 341).
edge(61, 381).
edge(61, 421).
edge(61, 11).
edge(62, 102).
edge(62, 142).
edge(62, 182).
edge(62, 222).
edge(62, 262).
edge(62, 302).
edge(62, 342).
edge(62, 382).
edge(62, 422).
edge(62, 12).
edge(63, 103).
edge(63, 143).
edge(63, 183).
edge(63, 223).
edge(63, 263).
edge(63, 303).
edge(63, 343).
edge(63, 383).
edge(63, 423).
edge(63, 13).
edge(64, 104).
edge(64, 144).
edge(64, 184).
edge(64, 224).
edge(64, 264).
edge(64, 304).
edge(64, 344).
edge(64, 384).
edge(64, 424).
edge(64, 14).
edge(65, 105).
edge(65, 145).
edge(65, 185).
edge(65, 225).
edge(65, 265).
edge(65, 305).
edge(65, 345).
edge(65, 385).
edge(65, 425).
edge(65, 15).
edge(66, 106).
edge(66, 146).
edge(66, 186).
edge(66, 226).
edge(66, 266).
edge(66, 306).
edge(66, 346).
edge(66, 386).
edge(66, 426).
edge(66, 16).
edge(67, 107).
edge(67, 147).
edge(67, 187).
edge(67, 227).
edge(67, 267).
edge(67, 307).
edge(67, 347).
edge(67, 387).
edge(67, 427).
edge(67, 17).
edge(68, 108).
edge(68, 148).
edge(68, 188).
edge(68, 228).
edge(68, 268).
edge(68, 308).
edge(68, 348).
edge(68, 388).
edge(68, 428).
edge(68, 18).
edge(69, 109).
edge(69, 149).
edge(69, 189).
edge(69, 229).
edge(69, 269).
edge(69, 309).
edge(69, 349).
edge(69, 389).
edge(69, 429).
edge(69, 19).
edge(70, 110).
edge(70, 150).
edge(70, 190).
edge(70, 230).
edge(70, 270).
edge(70, 310).
edge(70, 350).
edge(70, 390).
edge(70, 430).
edge(70, 20).
edge(71, 111).
edge(71, 151).
edge(71, 191).
edge(71, 231).
edge(71, 271).
edge(71, 311).
edge(71, 351).
edge(71, 391).
edge(71, 431).
edge(71, 21).
edge(72, 112).
edge(72, 152).
edge(72, 192).
edge(72, 232).
edge(72, 272).
edge(72, 312).
edge(72, 352).
edge(72, 392).
edge(72, 432).
edge(72, 22).
edge(73, 113).
edge(73, 153).
edge(73, 193).
edge(73, 233).
edge(73, 273).
edge(73, 313).
edge(73, 353).
edge(73, 393).
edge(73, 433).
edge(73, 23).
edge(74, 114).
edge(74, 154).
edge(74, 194).
edge(74, 234).
edge(74, 274).
edge(74, 314).
edge(74, 354).
edge(74, 394).
edge(74, 434).
edge(74, 24).
edge(75, 115).
edge(75, 155).
edge(75, 195).
edge(75, 235).
edge(75, 275).
edge(75, 315).
edge(75, 355).
edge(75, 395).
edge(75, 435).
edge(75, 25).
edge(76, 116).
edge(76, 156).
edge(76, 196).
edge(76, 236).
edge(76, 276).
edge(76, 316).
edge(76, 356).
edge(76, 396).
edge(76, 436).
edge(76, 26).
edge(77, 117).
edge(77, 157).
edge(77, 197).
edge(77, 237).
edge(77, 277).
edge(77, 317).
edge(77, 357).
edge(77, 397).
edge(77, 437).
edge(77, 27).
edge(78, 118).
edge(78, 158).
edge(78, 198).
edge(78, 238).
edge(78, 278).
edge(78, 318).
edge(78, 358).
edge(78, 398).
edge(78, 438).
edge(78, 28).
edge(79, 119).
edge(79, 159).
edge(79, 199).
edge(79, 239).
edge(79, 279).
edge(79, 319).
edge(79, 359).
edge(79, 399).
edge(79, 439).
edge(79, 29).
edge(80, 120).
edge(80, 160).
edge(80, 200).
edge(80, 240).
edge(80, 280).
edge(80, 320).
edge(80, 360).
edge(80, 400).
edge(80, 440).
edge(80, 30).
edge(81, 121).
edge(81, 161).
edge(81, 201).
edge(81, 241).
edge(81, 281).
edge(81, 321).
edge(81, 361).
edge(81, 401).
edge(81, 441).
edge(81, 31).
edge(82, 122).
edge(82, 162).
edge(82, 202).
edge(82, 242).
edge(82, 282).
edge(82, 322).
edge(82, 362).
edge(82, 402).
edge(82, 442).
edge(82, 32).
edge(83, 123).
edge(83, 163).
edge(83, 203).
edge(83, 243).
edge(83, 283).
edge(83, 323).
edge(83, 363).
edge(83, 403).
edge(83, 443).
edge(83, 33).
edge(84, 124).
edge(84, 164).
edge(84, 204).
edge(84, 244).
edge(84, 284).
edge(84, 324).
edge(84, 364).
edge(84, 404).
edge(84, 444).
edge(84, 34).
edge(85, 125).
edge(85, 165).
edge(85, 205).
edge(85, 245).
edge(85, 285).
edge(85, 325).
edge(85, 365).
edge(85, 405).
edge(85, 445).
edge(85, 35).
edge(86, 126).
edge(86, 166).
edge(86, 206).
edge(86, 246).
edge(86, 286).
edge(86, 326).
edge(86, 366).
edge(86, 406).
edge(86, 446).
edge(86, 36).
edge(87, 127).
edge(87, 167).
edge(87, 207).
edge(87, 247).
edge(87, 287).
edge(87, 327).
edge(87, 367).
edge(87, 407).
edge(87, 447).
edge(87, 37).
edge(88, 128).
edge(88, 168).
edge(88, 208).
edge(88, 248).
edge(88, 288).
edge(88, 328).
edge(88, 368).
edge(88, 408).
edge(88, 448).
edge(88, 38).
edge(89, 129).
edge(89, 169).
edge(89, 209).
edge(89, 249).
edge(89, 289).
edge(89, 329).
edge(89, 369).
edge(89, 409).
edge(89, 449).
edge(89, 39).
edge(90, 130).
edge(90, 170).
edge(90, 210).
edge(90, 250).
edge(90, 290).
edge(90, 330).
edge(90, 370).
edge(90, 410).
edge(90, 450).
edge(90, 40).
edge(91, 131).
edge(91, 171).
edge(91, 211).
edge(91, 251).
edge(91, 291).
edge(91, 331).
edge(91, 371).
edge(91, 411).
edge(91, 1).
edge(91, 41).
edge(92, 132).
edge(92, 172).
edge(92, 212).
edge(92, 252).
edge(92, 292).
edge(92, 332).
edge(92, 372).
edge(92, 412).
edge(92, 2).
edge(92, 42).
edge(93, 133).
edge(93, 173).
edge(93, 213).
edge(93, 253).
edge(93, 293).
edge(93, 333).
edge(93, 373).
edge(93, 413).
edge(93, 3).
edge(93, 43).
edge(94, 134).
edge(94, 174).
edge(94, 214).
edge(94, 254).
edge(94, 294).
edge(94, 334).
edge(94, 374).
edge(94, 414).
edge(94, 4).
edge(94, 44).
edge(95, 135).
edge(95, 175).
edge(95, 215).
edge(95, 255).
edge(95, 295).
edge(95, 335).
edge(95, 375).
edge(95, 415).
edge(95, 5).
edge(95, 45).
edge(96, 136).
edge(96, 176).
edge(96, 216).
edge(96, 256).
edge(96, 296).
edge(96, 336).
edge(96, 376).
edge(96, 416).
edge(96, 6).
edge(96, 46).
edge(97, 137).
edge(97, 177).
edge(97, 217).
edge(97, 257).
edge(97, 297).
edge(97, 337).
edge(97, 377).
edge(97, 417).
edge(97, 7).
edge(97, 47).
edge(98, 138).
edge(98, 178).
edge(98, 218).
edge(98, 258).
edge(98, 298).
edge(98, 338).
edge(98, 378).
edge(98, 418).
edge(98, 8).
edge(98, 48).
edge(99, 139).
edge(99, 179).
edge(99, 219).
edge(99, 259).
edge(99, 299).
edge(99, 339).
edge(99, 379).
edge(99, 419).
edge(99, 9).
edge(99, 49).
edge(100, 140).
edge(100, 180).
edge(100, 220).
edge(100, 260).
edge(100, 300).
edge(100, 340).
edge(100, 380).
edge(100, 420).
edge(100, 10).
edge(100, 50).
edge(101, 141).
edge(101, 181).
edge(101, 221).
edge(101, 261).
edge(101, 301).
edge(101, 341).
edge(101, 381).
edge(101, 421).
edge(101, 11).
edge(101, 51).
edge(102, 142).
edge(102, 182).
edge(102, 222).
edge(102, 262).
edge(102, 302).
edge(102, 342).
edge(102, 382).
edge(102, 422).
edge(102, 12).
edge(102, 52).
edge(103, 143).
edge(103, 183).
edge(103, 223).
edge(103, 263).
edge(103, 303).
edge(103, 343).
edge(103, 383).
edge(103, 423).
edge(103, 13).
edge(103, 53).
edge(104, 144).
edge(104, 184).
edge(104, 224).
edge(104, 264).
edge(104, 304).
edge(104, 344).
edge(104, 384).
edge(104, 424).
edge(104, 14).
edge(104, 54).
edge(105, 145).
edge(105, 185).
edge(105, 225).
edge(105, 265).
edge(105, 305).
edge(105, 345).
edge(105, 385).
edge(105, 425).
edge(105, 15).
edge(105, 55).
edge(106, 146).
edge(106, 186).
edge(106, 226).
edge(106, 266).
edge(106, 306).
edge(106, 346).
edge(106, 386).
edge(106, 426).
edge(106, 16).
edge(106, 56).
edge(107, 147).
edge(107, 187).
edge(107, 227).
edge(107, 267).
edge(107, 307).
edge(107, 347).
edge(107, 387).
edge(107, 427).
edge(107, 17).
edge(107, 57).
edge(108, 148).
edge(108, 188).
edge(108, 228).
edge(108, 268).
edge(108, 308).
edge(108, 348).
edge(108, 388).
edge(108, 428).
edge(108, 18).
edge(108, 58).
edge(109, 149).
edge(109, 189).
edge(109, 229).
edge(109, 269).
edge(109, 309).
edge(109, 349).
edge(109, 389).
edge(109, 429).
edge(109, 19).
edge(109, 59).
edge(110, 150).
edge(110, 190).
edge(110, 230).
edge(110, 270).
edge(110, 310).
edge(110, 350).
edge(110, 390).
edge(110, 430).
edge(110, 20).
edge(110, 60).
edge(111, 151).
edge(111, 191).
edge(111, 231).
edge(111, 271).
edge(111, 311).
edge(111, 351).
edge(111, 391).
edge(111, 431).
edge(111, 21).
edge(111, 61).
edge(112, 152).
edge(112, 192).
edge(112, 232).
edge(112, 272).
edge(112, 312).
edge(112, 352).
edge(112, 392).
edge(112, 432).
edge(112, 22).
edge(112, 62).
edge(113, 153).
edge(113, 193).
edge(113, 233).
edge(113, 273).
edge(113, 313).
edge(113, 353).
edge(113, 393).
edge(113, 433).
edge(113, 23).
edge(113, 63).
edge(114, 154).
edge(114, 194).
edge(114, 234).
edge(114, 274).
edge(114, 314).
edge(114, 354).
edge(114, 394).
edge(114, 434).
edge(114, 24).
edge(114, 64).
edge(115, 155).
edge(115, 195).
edge(115, 235).
edge(115, 275).
edge(115, 315).
edge(115, 355).
edge(115, 395).
edge(115, 435).
edge(115, 25).
edge(115, 65).
edge(116, 156).
edge(116, 196).
edge(116, 236).
edge(116, 276).
edge(116, 316).
edge(116, 356).
edge(116, 396).
edge(116, 436).
edge(116, 26).
edge(116, 66).
edge(117, 157).
edge(117, 197).
edge(117, 237).
edge(117, 277).
edge(117, 317).
edge(117, 357).
edge(117, 397).
edge(117, 437).
edge(117, 27).
edge(117, 67).
edge(118, 158).
edge(118, 198).
edge(118, 238).
edge(118, 278).
edge(118, 318).
edge(118, 358).
edge(118, 398).
edge(118, 438).
edge(118, 28).
edge(118, 68).
edge(119, 159).
edge(119, 199).
edge(119, 239).
edge(119, 279).
edge(119, 319).
edge(119, 359).
edge(119, 399).
edge(119, 439).
edge(119, 29).
edge(119, 69).
edge(120, 160).
edge(120, 200).
edge(120, 240).
edge(120, 280).
edge(120, 320).
edge(120, 360).
edge(120, 400).
edge(120, 440).
edge(120, 30).
edge(120, 70).
edge(121, 161).
edge(121, 201).
edge(121, 241).
edge(121, 281).
edge(121, 321).
edge(121, 361).
edge(121, 401).
edge(121, 441).
edge(121, 31).
edge(121, 71).
edge(122, 162).
edge(122, 202).
edge(122, 242).
edge(122, 282).
edge(122, 322).
edge(122, 362).
edge(122, 402).
edge(122, 442).
edge(122, 32).
edge(122, 72).
edge(123, 163).
edge(123, 203).
edge(123, 243).
edge(123, 283).
edge(123, 323).
edge(123, 363).
edge(123, 403).
edge(123, 443).
edge(123, 33).
edge(123, 73).
edge(124, 164).
edge(124, 204).
edge(124, 244).
edge(124, 284).
edge(124, 324).
edge(124, 364).
edge(124, 404).
edge(124, 444).
edge(124, 34).
edge(124, 74).
edge(125, 165).
edge(125, 205).
edge(125, 245).
edge(125, 285).
edge(125, 325).
edge(125, 365).
edge(125, 405).
edge(125, 445).
edge(125, 35).
edge(125, 75).
edge(126, 166).
edge(126, 206).
edge(126, 246).
edge(126, 286).
edge(126, 326).
edge(126, 366).
edge(126, 406).
edge(126, 446).
edge(126, 36).
edge(126, 76).
edge(127, 167).
edge(127, 207).
edge(127, 247).
edge(127, 287).
edge(127, 327).
edge(127, 367).
edge(127, 407).
edge(127, 447).
edge(127, 37).
edge(127, 77).
edge(128, 168).
edge(128, 208).
edge(128, 248).
edge(128, 288).
edge(128, 328).
edge(128, 368).
edge(128, 408).
edge(128, 448).
edge(128, 38).
edge(128, 78).
edge(129, 169).
edge(129, 209).
edge(129, 249).
edge(129, 289).
edge(129, 329).
edge(129, 369).
edge(129, 409).
edge(129, 449).
edge(129, 39).
edge(129, 79).
edge(130, 170).
edge(130, 210).
edge(130, 250).
edge(130, 290).
edge(130, 330).
edge(130, 370).
edge(130, 410).
edge(130, 450).
edge(130, 40).
edge(130, 80).
edge(131, 171).
edge(131, 211).
edge(131, 251).
edge(131, 291).
edge(131, 331).
edge(131, 371).
edge(131, 411).
edge(131, 1).
edge(131, 41).
edge(131, 81).
edge(132, 172).
edge(132, 212).
edge(132, 252).
edge(132, 292).
edge(132, 332).
edge(132, 372).
edge(132, 412).
edge(132, 2).
edge(132, 42).
edge(132, 82).
edge(133, 173).
edge(133, 213).
edge(133, 253).
edge(133, 293).
edge(133, 333).
edge(133, 373).
edge(133, 413).
edge(133, 3).
edge(133, 43).
edge(133, 83).
edge(134, 174).
edge(134, 214).
edge(134, 254).
edge(134, 294).
edge(134, 334).
edge(134, 374).
edge(134, 414).
edge(134, 4).
edge(134, 44).
edge(134, 84).
edge(135, 175).
edge(135, 215).
edge(135, 255).
edge(135, 295).
edge(135, 335).
edge(135, 375).
edge(135, 415).
edge(135, 5).
edge(135, 45).
edge(135, 85).
edge(136, 176).
edge(136, 216).
edge(136, 256).
edge(136, 296).
edge(136, 336).
edge(136, 376).
edge(136, 416).
edge(136, 6).
edge(136, 46).
edge(136, 86).
edge(137, 177).
edge(137, 217).
edge(137, 257).
edge(137, 297).
edge(137, 337).
edge(137, 377).
edge(137, 417).
edge(137, 7).
edge(137, 47).
edge(137, 87).
edge(138, 178).
edge(138, 218).
edge(138, 258).
edge(138, 298).
edge(138, 338).
edge(138, 378).
edge(138, 418).
edge(138, 8).
edge(138, 48).
edge(138, 88).
edge(139, 179).
edge(139, 219).
edge(139, 259).
edge(139, 299).
edge(139, 339).
edge(139, 379).
edge(139, 419).
edge(139, 9).
edge(139, 49).
edge(139, 89).
edge(140, 180).
edge(140, 220).
edge(140, 260).
edge(140, 300).
edge(140, 340).
edge(140, 380).
edge(140, 420).
edge(140, 10).
edge(140, 50).
edge(140, 90).
edge(141, 181).
edge(141, 221).
edge(141, 261).
edge(141, 301).
edge(141, 341).
edge(141, 381).
edge(141, 421).
edge(141, 11).
edge(141, 51).
edge(141, 91).
edge(142, 182).
edge(142, 222).
edge(142, 262).
edge(142, 302).
edge(142, 342).
edge(142, 382).
edge(142, 422).
edge(142, 12).
edge(142, 52).
edge(142, 92).
edge(143, 183).
edge(143, 223).
edge(143, 263).
edge(143, 303).
edge(143, 343).
edge(143, 383).
edge(143, 423).
edge(143, 13).
edge(143, 53).
edge(143, 93).
edge(144, 184).
edge(144, 224).
edge(144, 264).
edge(144, 304).
edge(144, 344).
edge(144, 384).
edge(144, 424).
edge(144, 14).
edge(144, 54).
edge(144, 94).
edge(145, 185).
edge(145, 225).
edge(145, 265).
edge(145, 305).
edge(145, 345).
edge(145, 385).
edge(145, 425).
edge(145, 15).
edge(145, 55).
edge(145, 95).
edge(146, 186).
edge(146, 226).
edge(146, 266).
edge(146, 306).
edge(146, 346).
edge(146, 386).
edge(146, 426).
edge(146, 16).
edge(146, 56).
edge(146, 96).
edge(147, 187).
edge(147, 227).
edge(147, 267).
edge(147, 307).
edge(147, 347).
edge(147, 387).
edge(147, 427).
edge(147, 17).
edge(147, 57).
edge(147, 97).
edge(148, 188).
edge(148, 228).
edge(148, 268).
edge(148, 308).
edge(148, 348).
edge(148, 388).
edge(148, 428).
edge(148, 18).
edge(148, 58).
edge(148, 98).
edge(149, 189).
edge(149, 229).
edge(149, 269).
edge(149, 309).
edge(149, 349).
edge(149, 389).
edge(149, 429).
edge(149, 19).
edge(149, 59).
edge(149, 99).
edge(150, 190).
edge(150, 230).
edge(150, 270).
edge(150, 310).
edge(150, 350).
edge(150, 390).
edge(150, 430).
edge(150, 20).
edge(150, 60).
edge(150, 100).
edge(151, 191).
edge(151, 231).
edge(151, 271).
edge(151, 311).
edge(151, 351).
edge(151, 391).
edge(151, 431).
edge(151, 21).
edge(151, 61).
edge(151, 101).
edge(152, 192).
edge(152, 232).
edge(152, 272).
edge(152, 312).
edge(152, 352).
edge(152, 392).
edge(152, 432).
edge(152, 22).
edge(152, 62).
edge(152, 102).
edge(153, 193).
edge(153, 233).
edge(153, 273).
edge(153, 313).
edge(153, 353).
edge(153, 393).
edge(153, 433).
edge(153, 23).
edge(153, 63).
edge(153, 103).
edge(154, 194).
edge(154, 234).
edge(154, 274).
edge(154, 314).
edge(154, 354).
edge(154, 394).
edge(154, 434).
edge(154, 24).
edge(154, 64).
edge(154, 104).
edge(155, 195).
edge(155, 235).
edge(155, 275).
edge(155, 315).
edge(155, 355).
edge(155, 395).
edge(155, 435).
edge(155, 25).
edge(155, 65).
edge(155, 105).
edge(156, 196).
edge(156, 236).
edge(156, 276).
edge(156, 316).
edge(156, 356).
edge(156, 396).
edge(156, 436).
edge(156, 26).
edge(156, 66).
edge(156, 106).
edge(157, 197).
edge(157, 237).
edge(157, 277).
edge(157, 317).
edge(157, 357).
edge(157, 397).
edge(157, 437).
edge(157, 27).
edge(157, 67).
edge(157, 107).
edge(158, 198).
edge(158, 238).
edge(158, 278).
edge(158, 318).
edge(158, 358).
edge(158, 398).
edge(158, 438).
edge(158, 28).
edge(158, 68).
edge(158, 108).
edge(159, 199).
edge(159, 239).
edge(159, 279).
edge(159, 319).
edge(159, 359).
edge(159, 399).
edge(159, 439).
edge(159, 29).
edge(159, 69).
edge(159, 109).
edge(160, 200).
edge(160, 240).
edge(160, 280).
edge(160, 320).
edge(160, 360).
edge(160, 400).
edge(160, 440).
edge(160, 30).
edge(160, 70).
edge(160, 110).
edge(161, 201).
edge(161, 241).
edge(161, 281).
edge(161, 321).
edge(161, 361).
edge(161, 401).
edge(161, 441).
edge(161, 31).
edge(161, 71).
edge(161, 111).
edge(162, 202).
edge(162, 242).
edge(162, 282).
edge(162, 322).
edge(162, 362).
edge(162, 402).
edge(162, 442).
edge(162, 32).
edge(162, 72).
edge(162, 112).
edge(163, 203).
edge(163, 243).
edge(163, 283).
edge(163, 323).
edge(163, 363).
edge(163, 403).
edge(163, 443).
edge(163, 33).
edge(163, 73).
edge(163, 113).
edge(164, 204).
edge(164, 244).
edge(164, 284).
edge(164, 324).
edge(164, 364).
edge(164, 404).
edge(164, 444).
edge(164, 34).
edge(164, 74).
edge(164, 114).
edge(165, 205).
edge(165, 245).
edge(165, 285).
edge(165, 325).
edge(165, 365).
edge(165, 405).
edge(165, 445).
edge(165, 35).
edge(165, 75).
edge(165, 115).
edge(166, 206).
edge(166, 246).
edge(166, 286).
edge(166, 326).
edge(166, 366).
edge(166, 406).
edge(166, 446).
edge(166, 36).
edge(166, 76).
edge(166, 116).
edge(167, 207).
edge(167, 247).
edge(167, 287).
edge(167, 327).
edge(167, 367).
edge(167, 407).
edge(167, 447).
edge(167, 37).
edge(167, 77).
edge(167, 117).
edge(168, 208).
edge(168, 248).
edge(168, 288).
edge(168, 328).
edge(168, 368).
edge(168, 408).
edge(168, 448).
edge(168, 38).
edge(168, 78).
edge(168, 118).
edge(169, 209).
edge(169, 249).
edge(169, 289).
edge(169, 329).
edge(169, 369).
edge(169, 409).
edge(169, 449).
edge(169, 39).
edge(169, 79).
edge(169, 119).
edge(170, 210).
edge(170, 250).
edge(170, 290).
edge(170, 330).
edge(170, 370).
edge(170, 410).
edge(170, 450).
edge(170, 40).
edge(170, 80).
edge(170, 120).
edge(171, 211).
edge(171, 251).
edge(171, 291).
edge(171, 331).
edge(171, 371).
edge(171, 411).
edge(171, 1).
edge(171, 41).
edge(171, 81).
edge(171, 121).
edge(172, 212).
edge(172, 252).
edge(172, 292).
edge(172, 332).
edge(172, 372).
edge(172, 412).
edge(172, 2).
edge(172, 42).
edge(172, 82).
edge(172, 122).
edge(173, 213).
edge(173, 253).
edge(173, 293).
edge(173, 333).
edge(173, 373).
edge(173, 413).
edge(173, 3).
edge(173, 43).
edge(173, 83).
edge(173, 123).
edge(174, 214).
edge(174, 254).
edge(174, 294).
edge(174, 334).
edge(174, 374).
edge(174, 414).
edge(174, 4).
edge(174, 44).
edge(174, 84).
edge(174, 124).
edge(175, 215).
edge(175, 255).
edge(175, 295).
edge(175, 335).
edge(175, 375).
edge(175, 415).
edge(175, 5).
edge(175, 45).
edge(175, 85).
edge(175, 125).
edge(176, 216).
edge(176, 256).
edge(176, 296).
edge(176, 336).
edge(176, 376).
edge(176, 416).
edge(176, 6).
edge(176, 46).
edge(176, 86).
edge(176, 126).
edge(177, 217).
edge(177, 257).
edge(177, 297).
edge(177, 337).
edge(177, 377).
edge(177, 417).
edge(177, 7).
edge(177, 47).
edge(177, 87).
edge(177, 127).
edge(178, 218).
edge(178, 258).
edge(178, 298).
edge(178, 338).
edge(178, 378).
edge(178, 418).
edge(178, 8).
edge(178, 48).
edge(178, 88).
edge(178, 128).
edge(179, 219).
edge(179, 259).
edge(179, 299).
edge(179, 339).
edge(179, 379).
edge(179, 419).
edge(179, 9).
edge(179, 49).
edge(179, 89).
edge(179, 129).
edge(180, 220).
edge(180, 260).
edge(180, 300).
edge(180, 340).
edge(180, 380).
edge(180, 420).
edge(180, 10).
edge(180, 50).
edge(180, 90).
edge(180, 130).
edge(181, 221).
edge(181, 261).
edge(181, 301).
edge(181, 341).
edge(181, 381).
edge(181, 421).
edge(181, 11).
edge(181, 51).
edge(181, 91).
edge(181, 131).
edge(182, 222).
edge(182, 262).
edge(182, 302).
edge(182, 342).
edge(182, 382).
edge(182, 422).
edge(182, 12).
edge(182, 52).
edge(182, 92).
edge(182, 132).
edge(183, 223).
edge(183, 263).
edge(183, 303).
edge(183, 343).
edge(183, 383).
edge(183, 423).
edge(183, 13).
edge(183, 53).
edge(183, 93).
edge(183, 133).
edge(184, 224).
edge(184, 264).
edge(184, 304).
edge(184, 344).
edge(184, 384).
edge(184, 424).
edge(184, 14).
edge(184, 54).
edge(184, 94).
edge(184, 134).
edge(185, 225).
edge(185, 265).
edge(185, 305).
edge(185, 345).
edge(185, 385).
edge(185, 425).
edge(185, 15).
edge(185, 55).
edge(185, 95).
edge(185, 135).
edge(186, 226).
edge(186, 266).
edge(186, 306).
edge(186, 346).
edge(186, 386).
edge(186, 426).
edge(186, 16).
edge(186, 56).
edge(186, 96).
edge(186, 136).
edge(187, 227).
edge(187, 267).
edge(187, 307).
edge(187, 347).
edge(187, 387).
edge(187, 427).
edge(187, 17).
edge(187, 57).
edge(187, 97).
edge(187, 137).
edge(188, 228).
edge(188, 268).
edge(188, 308).
edge(188, 348).
edge(188, 388).
edge(188, 428).
edge(188, 18).
edge(188, 58).
edge(188, 98).
edge(188, 138).
edge(189, 229).
edge(189, 269).
edge(189, 309).
edge(189, 349).
edge(189, 389).
edge(189, 429).
edge(189, 19).
edge(189, 59).
edge(189, 99).
edge(189, 139).
edge(190, 230).
edge(190, 270).
edge(190, 310).
edge(190, 350).
edge(190, 390).
edge(190, 430).
edge(190, 20).
edge(190, 60).
edge(190, 100).
edge(190, 140).
edge(191, 231).
edge(191, 271).
edge(191, 311).
edge(191, 351).
edge(191, 391).
edge(191, 431).
edge(191, 21).
edge(191, 61).
edge(191, 101).
edge(191, 141).
edge(192, 232).
edge(192, 272).
edge(192, 312).
edge(192, 352).
edge(192, 392).
edge(192, 432).
edge(192, 22).
edge(192, 62).
edge(192, 102).
edge(192, 142).
edge(193, 233).
edge(193, 273).
edge(193, 313).
edge(193, 353).
edge(193, 393).
edge(193, 433).
edge(193, 23).
edge(193, 63).
edge(193, 103).
edge(193, 143).
edge(194, 234).
edge(194, 274).
edge(194, 314).
edge(194, 354).
edge(194, 394).
edge(194, 434).
edge(194, 24).
edge(194, 64).
edge(194, 104).
edge(194, 144).
edge(195, 235).
edge(195, 275).
edge(195, 315).
edge(195, 355).
edge(195, 395).
edge(195, 435).
edge(195, 25).
edge(195, 65).
edge(195, 105).
edge(195, 145).
edge(196, 236).
edge(196, 276).
edge(196, 316).
edge(196, 356).
edge(196, 396).
edge(196, 436).
edge(196, 26).
edge(196, 66).
edge(196, 106).
edge(196, 146).
edge(197, 237).
edge(197, 277).
edge(197, 317).
edge(197, 357).
edge(197, 397).
edge(197, 437).
edge(197, 27).
edge(197, 67).
edge(197, 107).
edge(197, 147).
edge(198, 238).
edge(198, 278).
edge(198, 318).
edge(198, 358).
edge(198, 398).
edge(198, 438).
edge(198, 28).
edge(198, 68).
edge(198, 108).
edge(198, 148).
edge(199, 239).
edge(199, 279).
edge(199, 319).
edge(199, 359).
edge(199, 399).
edge(199, 439).
edge(199, 29).
edge(199, 69).
edge(199, 109).
edge(199, 149).
edge(200, 240).
edge(200, 280).
edge(200, 320).
edge(200, 360).
edge(200, 400).
edge(200, 440).
edge(200, 30).
edge(200, 70).
edge(200, 110).
edge(200, 150).
edge(201, 241).
edge(201, 281).
edge(201, 321).
edge(201, 361).
edge(201, 401).
edge(201, 441).
edge(201, 31).
edge(201, 71).
edge(201, 111).
edge(201, 151).
edge(202, 242).
edge(202, 282).
edge(202, 322).
edge(202, 362).
edge(202, 402).
edge(202, 442).
edge(202, 32).
edge(202, 72).
edge(202, 112).
edge(202, 152).
edge(203, 243).
edge(203, 283).
edge(203, 323).
edge(203, 363).
edge(203, 403).
edge(203, 443).
edge(203, 33).
edge(203, 73).
edge(203, 113).
edge(203, 153).
edge(204, 244).
edge(204, 284).
edge(204, 324).
edge(204, 364).
edge(204, 404).
edge(204, 444).
edge(204, 34).
edge(204, 74).
edge(204, 114).
edge(204, 154).
edge(205, 245).
edge(205, 285).
edge(205, 325).
edge(205, 365).
edge(205, 405).
edge(205, 445).
edge(205, 35).
edge(205, 75).
edge(205, 115).
edge(205, 155).
edge(206, 246).
edge(206, 286).
edge(206, 326).
edge(206, 366).
edge(206, 406).
edge(206, 446).
edge(206, 36).
edge(206, 76).
edge(206, 116).
edge(206, 156).
edge(207, 247).
edge(207, 287).
edge(207, 327).
edge(207, 367).
edge(207, 407).
edge(207, 447).
edge(207, 37).
edge(207, 77).
edge(207, 117).
edge(207, 157).
edge(208, 248).
edge(208, 288).
edge(208, 328).
edge(208, 368).
edge(208, 408).
edge(208, 448).
edge(208, 38).
edge(208, 78).
edge(208, 118).
edge(208, 158).
edge(209, 249).
edge(209, 289).
edge(209, 329).
edge(209, 369).
edge(209, 409).
edge(209, 449).
edge(209, 39).
edge(209, 79).
edge(209, 119).
edge(209, 159).
edge(210, 250).
edge(210, 290).
edge(210, 330).
edge(210, 370).
edge(210, 410).
edge(210, 450).
edge(210, 40).
edge(210, 80).
edge(210, 120).
edge(210, 160).
edge(211, 251).
edge(211, 291).
edge(211, 331).
edge(211, 371).
edge(211, 411).
edge(211, 1).
edge(211, 41).
edge(211, 81).
edge(211, 121).
edge(211, 161).
edge(212, 252).
edge(212, 292).
edge(212, 332).
edge(212, 372).
edge(212, 412).
edge(212, 2).
edge(212, 42).
edge(212, 82).
edge(212, 122).
edge(212, 162).
edge(213, 253).
edge(213, 293).
edge(213, 333).
edge(213, 373).
edge(213, 413).
edge(213, 3).
edge(213, 43).
edge(213, 83).
edge(213, 123).
edge(213, 163).
edge(214, 254).
edge(214, 294).
edge(214, 334).
edge(214, 374).
edge(214, 414).
edge(214, 4).
edge(214, 44).
edge(214, 84).
edge(214, 124).
edge(214, 164).
edge(215, 255).
edge(215, 295).
edge(215, 335).
edge(215, 375).
edge(215, 415).
edge(215, 5).
edge(215, 45).
edge(215, 85).
edge(215, 125).
edge(215, 165).
edge(216, 256).
edge(216, 296).
edge(216, 336).
edge(216, 376).
edge(216, 416).
edge(216, 6).
edge(216, 46).
edge(216, 86).
edge(216, 126).
edge(216, 166).
edge(217, 257).
edge(217, 297).
edge(217, 337).
edge(217, 377).
edge(217, 417).
edge(217, 7).
edge(217, 47).
edge(217, 87).
edge(217, 127).
edge(217, 167).
edge(218, 258).
edge(218, 298).
edge(218, 338).
edge(218, 378).
edge(218, 418).
edge(218, 8).
edge(218, 48).
edge(218, 88).
edge(218, 128).
edge(218, 168).
edge(219, 259).
edge(219, 299).
edge(219, 339).
edge(219, 379).
edge(219, 419).
edge(219, 9).
edge(219, 49).
edge(219, 89).
edge(219, 129).
edge(219, 169).
edge(220, 260).
edge(220, 300).
edge(220, 340).
edge(220, 380).
edge(220, 420).
edge(220, 10).
edge(220, 50).
edge(220, 90).
edge(220, 130).
edge(220, 170).
edge(221, 261).
edge(221, 301).
edge(221, 341).
edge(221, 381).
edge(221, 421).
edge(221, 11).
edge(221, 51).
edge(221, 91).
edge(221, 131).
edge(221, 171).
edge(222, 262).
edge(222, 302).
edge(222, 342).
edge(222, 382).
edge(222, 422).
edge(222, 12).
edge(222, 52).
edge(222, 92).
edge(222, 132).
edge(222, 172).
edge(223, 263).
edge(223, 303).
edge(223, 343).
edge(223, 383).
edge(223, 423).
edge(223, 13).
edge(223, 53).
edge(223, 93).
edge(223, 133).
edge(223, 173).
edge(224, 264).
edge(224, 304).
edge(224, 344).
edge(224, 384).
edge(224, 424).
edge(224, 14).
edge(224, 54).
edge(224, 94).
edge(224, 134).
edge(224, 174).
edge(225, 265).
edge(225, 305).
edge(225, 345).
edge(225, 385).
edge(225, 425).
edge(225, 15).
edge(225, 55).
edge(225, 95).
edge(225, 135).
edge(225, 175).
edge(226, 266).
edge(226, 306).
edge(226, 346).
edge(226, 386).
edge(226, 426).
edge(226, 16).
edge(226, 56).
edge(226, 96).
edge(226, 136).
edge(226, 176).
edge(227, 267).
edge(227, 307).
edge(227, 347).
edge(227, 387).
edge(227, 427).
edge(227, 17).
edge(227, 57).
edge(227, 97).
edge(227, 137).
edge(227, 177).
edge(228, 268).
edge(228, 308).
edge(228, 348).
edge(228, 388).
edge(228, 428).
edge(228, 18).
edge(228, 58).
edge(228, 98).
edge(228, 138).
edge(228, 178).
edge(229, 269).
edge(229, 309).
edge(229, 349).
edge(229, 389).
edge(229, 429).
edge(229, 19).
edge(229, 59).
edge(229, 99).
edge(229, 139).
edge(229, 179).
edge(230, 270).
edge(230, 310).
edge(230, 350).
edge(230, 390).
edge(230, 430).
edge(230, 20).
edge(230, 60).
edge(230, 100).
edge(230, 140).
edge(230, 180).
edge(231, 271).
edge(231, 311).
edge(231, 351).
edge(231, 391).
edge(231, 431).
edge(231, 21).
edge(231, 61).
edge(231, 101).
edge(231, 141).
edge(231, 181).
edge(232, 272).
edge(232, 312).
edge(232, 352).
edge(232, 392).
edge(232, 432).
edge(232, 22).
edge(232, 62).
edge(232, 102).
edge(232, 142).
edge(232, 182).
edge(233, 273).
edge(233, 313).
edge(233, 353).
edge(233, 393).
edge(233, 433).
edge(233, 23).
edge(233, 63).
edge(233, 103).
edge(233, 143).
edge(233, 183).
edge(234, 274).
edge(234, 314).
edge(234, 354).
edge(234, 394).
edge(234, 434).
edge(234, 24).
edge(234, 64).
edge(234, 104).
edge(234, 144).
edge(234, 184).
edge(235, 275).
edge(235, 315).
edge(235, 355).
edge(235, 395).
edge(235, 435).
edge(235, 25).
edge(235, 65).
edge(235, 105).
edge(235, 145).
edge(235, 185).
edge(236, 276).
edge(236, 316).
edge(236, 356).
edge(236, 396).
edge(236, 436).
edge(236, 26).
edge(236, 66).
edge(236, 106).
edge(236, 146).
edge(236, 186).
edge(237, 277).
edge(237, 317).
edge(237, 357).
edge(237, 397).
edge(237, 437).
edge(237, 27).
edge(237, 67).
edge(237, 107).
edge(237, 147).
edge(237, 187).
edge(238, 278).
edge(238, 318).
edge(238, 358).
edge(238, 398).
edge(238, 438).
edge(238, 28).
edge(238, 68).
edge(238, 108).
edge(238, 148).
edge(238, 188).
edge(239, 279).
edge(239, 319).
edge(239, 359).
edge(239, 399).
edge(239, 439).
edge(239, 29).
edge(239, 69).
edge(239, 109).
edge(239, 149).
edge(239, 189).
edge(240, 280).
edge(240, 320).
edge(240, 360).
edge(240, 400).
edge(240, 440).
edge(240, 30).
edge(240, 70).
edge(240, 110).
edge(240, 150).
edge(240, 190).
edge(241, 281).
edge(241, 321).
edge(241, 361).
edge(241, 401).
edge(241, 441).
edge(241, 31).
edge(241, 71).
edge(241, 111).
edge(241, 151).
edge(241, 191).
edge(242, 282).
edge(242, 322).
edge(242, 362).
edge(242, 402).
edge(242, 442).
edge(242, 32).
edge(242, 72).
edge(242, 112).
edge(242, 152).
edge(242, 192).
edge(243, 283).
edge(243, 323).
edge(243, 363).
edge(243, 403).
edge(243, 443).
edge(243, 33).
edge(243, 73).
edge(243, 113).
edge(243, 153).
edge(243, 193).
edge(244, 284).
edge(244, 324).
edge(244, 364).
edge(244, 404).
edge(244, 444).
edge(244, 34).
edge(244, 74).
edge(244, 114).
edge(244, 154).
edge(244, 194).
edge(245, 285).
edge(245, 325).
edge(245, 365).
edge(245, 405).
edge(245, 445).
edge(245, 35).
edge(245, 75).
edge(245, 115).
edge(245, 155).
edge(245, 195).
edge(246, 286).
edge(246, 326).
edge(246, 366).
edge(246, 406).
edge(246, 446).
edge(246, 36).
edge(246, 76).
edge(246, 116).
edge(246, 156).
edge(246, 196).
edge(247, 287).
edge(247, 327).
edge(247, 367).
edge(247, 407).
edge(247, 447).
edge(247, 37).
edge(247, 77).
edge(247, 117).
edge(247, 157).
edge(247, 197).
edge(248, 288).
edge(248, 328).
edge(248, 368).
edge(248, 408).
edge(248, 448).
edge(248, 38).
edge(248, 78).
edge(248, 118).
edge(248, 158).
edge(248, 198).
edge(249, 289).
edge(249, 329).
edge(249, 369).
edge(249, 409).
edge(249, 449).
edge(249, 39).
edge(249, 79).
edge(249, 119).
edge(249, 159).
edge(249, 199).
edge(250, 290).
edge(250, 330).
edge(250, 370).
edge(250, 410).
edge(250, 450).
edge(250, 40).
edge(250, 80).
edge(250, 120).
edge(250, 160).
edge(250, 200).
edge(251, 291).
edge(251, 331).
edge(251, 371).
edge(251, 411).
edge(251, 1).
edge(251, 41).
edge(251, 81).
edge(251, 121).
edge(251, 161).
edge(251, 201).
edge(252, 292).
edge(252, 332).
edge(252, 372).
edge(252, 412).
edge(252, 2).
edge(252, 42).
edge(252, 82).
edge(252, 122).
edge(252, 162).
edge(252, 202).
edge(253, 293).
edge(253, 333).
edge(253, 373).
edge(253, 413).
edge(253, 3).
edge(253, 43).
edge(253, 83).
edge(253, 123).
edge(253, 163).
edge(253, 203).
edge(254, 294).
edge(254, 334).
edge(254, 374).
edge(254, 414).
edge(254, 4).
edge(254, 44).
edge(254, 84).
edge(254, 124).
edge(254, 164).
edge(254, 204).
edge(255, 295).
edge(255, 335).
edge(255, 375).
edge(255, 415).
edge(255, 5).
edge(255, 45).
edge(255, 85).
edge(255, 125).
edge(255, 165).
edge(255, 205).
edge(256, 296).
edge(256, 336).
edge(256, 376).
edge(256, 416).
edge(256, 6).
edge(256, 46).
edge(256, 86).
edge(256, 126).
edge(256, 166).
edge(256, 206).
edge(257, 297).
edge(257, 337).
edge(257, 377).
edge(257, 417).
edge(257, 7).
edge(257, 47).
edge(257, 87).
edge(257, 127).
edge(257, 167).
edge(257, 207).
edge(258, 298).
edge(258, 338).
edge(258, 378).
edge(258, 418).
edge(258, 8).
edge(258, 48).
edge(258, 88).
edge(258, 128).
edge(258, 168).
edge(258, 208).
edge(259, 299).
edge(259, 339).
edge(259, 379).
edge(259, 419).
edge(259, 9).
edge(259, 49).
edge(259, 89).
edge(259, 129).
edge(259, 169).
edge(259, 209).
edge(260, 300).
edge(260, 340).
edge(260, 380).
edge(260, 420).
edge(260, 10).
edge(260, 50).
edge(260, 90).
edge(260, 130).
edge(260, 170).
edge(260, 210).
edge(261, 301).
edge(261, 341).
edge(261, 381).
edge(261, 421).
edge(261, 11).
edge(261, 51).
edge(261, 91).
edge(261, 131).
edge(261, 171).
edge(261, 211).
edge(262, 302).
edge(262, 342).
edge(262, 382).
edge(262, 422).
edge(262, 12).
edge(262, 52).
edge(262, 92).
edge(262, 132).
edge(262, 172).
edge(262, 212).
edge(263, 303).
edge(263, 343).
edge(263, 383).
edge(263, 423).
edge(263, 13).
edge(263, 53).
edge(263, 93).
edge(263, 133).
edge(263, 173).
edge(263, 213).
edge(264, 304).
edge(264, 344).
edge(264, 384).
edge(264, 424).
edge(264, 14).
edge(264, 54).
edge(264, 94).
edge(264, 134).
edge(264, 174).
edge(264, 214).
edge(265, 305).
edge(265, 345).
edge(265, 385).
edge(265, 425).
edge(265, 15).
edge(265, 55).
edge(265, 95).
edge(265, 135).
edge(265, 175).
edge(265, 215).
edge(266, 306).
edge(266, 346).
edge(266, 386).
edge(266, 426).
edge(266, 16).
edge(266, 56).
edge(266, 96).
edge(266, 136).
edge(266, 176).
edge(266, 216).
edge(267, 307).
edge(267, 347).
edge(267, 387).
edge(267, 427).
edge(267, 17).
edge(267, 57).
edge(267, 97).
edge(267, 137).
edge(267, 177).
edge(267, 217).
edge(268, 308).
edge(268, 348).
edge(268, 388).
edge(268, 428).
edge(268, 18).
edge(268, 58).
edge(268, 98).
edge(268, 138).
edge(268, 178).
edge(268, 218).
edge(269, 309).
edge(269, 349).
edge(269, 389).
edge(269, 429).
edge(269, 19).
edge(269, 59).
edge(269, 99).
edge(269, 139).
edge(269, 179).
edge(269, 219).
edge(270, 310).
edge(270, 350).
edge(270, 390).
edge(270, 430).
edge(270, 20).
edge(270, 60).
edge(270, 100).
edge(270, 140).
edge(270, 180).
edge(270, 220).
edge(271, 311).
edge(271, 351).
edge(271, 391).
edge(271, 431).
edge(271, 21).
edge(271, 61).
edge(271, 101).
edge(271, 141).
edge(271, 181).
edge(271, 221).
edge(272, 312).
edge(272, 352).
edge(272, 392).
edge(272, 432).
edge(272, 22).
edge(272, 62).
edge(272, 102).
edge(272, 142).
edge(272, 182).
edge(272, 222).
edge(273, 313).
edge(273, 353).
edge(273, 393).
edge(273, 433).
edge(273, 23).
edge(273, 63).
edge(273, 103).
edge(273, 143).
edge(273, 183).
edge(273, 223).
edge(274, 314).
edge(274, 354).
edge(274, 394).
edge(274, 434).
edge(274, 24).
edge(274, 64).
edge(274, 104).
edge(274, 144).
edge(274, 184).
edge(274, 224).
edge(275, 315).
edge(275, 355).
edge(275, 395).
edge(275, 435).
edge(275, 25).
edge(275, 65).
edge(275, 105).
edge(275, 145).
edge(275, 185).
edge(275, 225).
edge(276, 316).
edge(276, 356).
edge(276, 396).
edge(276, 436).
edge(276, 26).
edge(276, 66).
edge(276, 106).
edge(276, 146).
edge(276, 186).
edge(276, 226).
edge(277, 317).
edge(277, 357).
edge(277, 397).
edge(277, 437).
edge(277, 27).
edge(277, 67).
edge(277, 107).
edge(277, 147).
edge(277, 187).
edge(277, 227).
edge(278, 318).
edge(278, 358).
edge(278, 398).
edge(278, 438).
edge(278, 28).
edge(278, 68).
edge(278, 108).
edge(278, 148).
edge(278, 188).
edge(278, 228).
edge(279, 319).
edge(279, 359).
edge(279, 399).
edge(279, 439).
edge(279, 29).
edge(279, 69).
edge(279, 109).
edge(279, 149).
edge(279, 189).
edge(279, 229).
edge(280, 320).
edge(280, 360).
edge(280, 400).
edge(280, 440).
edge(280, 30).
edge(280, 70).
edge(280, 110).
edge(280, 150).
edge(280, 190).
edge(280, 230).
edge(281, 321).
edge(281, 361).
edge(281, 401).
edge(281, 441).
edge(281, 31).
edge(281, 71).
edge(281, 111).
edge(281, 151).
edge(281, 191).
edge(281, 231).
edge(282, 322).
edge(282, 362).
edge(282, 402).
edge(282, 442).
edge(282, 32).
edge(282, 72).
edge(282, 112).
edge(282, 152).
edge(282, 192).
edge(282, 232).
edge(283, 323).
edge(283, 363).
edge(283, 403).
edge(283, 443).
edge(283, 33).
edge(283, 73).
edge(283, 113).
edge(283, 153).
edge(283, 193).
edge(283, 233).
edge(284, 324).
edge(284, 364).
edge(284, 404).
edge(284, 444).
edge(284, 34).
edge(284, 74).
edge(284, 114).
edge(284, 154).
edge(284, 194).
edge(284, 234).
edge(285, 325).
edge(285, 365).
edge(285, 405).
edge(285, 445).
edge(285, 35).
edge(285, 75).
edge(285, 115).
edge(285, 155).
edge(285, 195).
edge(285, 235).
edge(286, 326).
edge(286, 366).
edge(286, 406).
edge(286, 446).
edge(286, 36).
edge(286, 76).
edge(286, 116).
edge(286, 156).
edge(286, 196).
edge(286, 236).
edge(287, 327).
edge(287, 367).
edge(287, 407).
edge(287, 447).
edge(287, 37).
edge(287, 77).
edge(287, 117).
edge(287, 157).
edge(287, 197).
edge(287, 237).
edge(288, 328).
edge(288, 368).
edge(288, 408).
edge(288, 448).
edge(288, 38).
edge(288, 78).
edge(288, 118).
edge(288, 158).
edge(288, 198).
edge(288, 238).
edge(289, 329).
edge(289, 369).
edge(289, 409).
edge(289, 449).
edge(289, 39).
edge(289, 79).
edge(289, 119).
edge(289, 159).
edge(289, 199).
edge(289, 239).
edge(290, 330).
edge(290, 370).
edge(290, 410).
edge(290, 450).
edge(290, 40).
edge(290, 80).
edge(290, 120).
edge(290, 160).
edge(290, 200).
edge(290, 240).
edge(291, 331).
edge(291, 371).
edge(291, 411).
edge(291, 1).
edge(291, 41).
edge(291, 81).
edge(291, 121).
edge(291, 161).
edge(291, 201).
edge(291, 241).
edge(292, 332).
edge(292, 372).
edge(292, 412).
edge(292, 2).
edge(292, 42).
edge(292, 82).
edge(292, 122).
edge(292, 162).
edge(292, 202).
edge(292, 242).
edge(293, 333).
edge(293, 373).
edge(293, 413).
edge(293, 3).
edge(293, 43).
edge(293, 83).
edge(293, 123).
edge(293, 163).
edge(293, 203).
edge(293, 243).
edge(294, 334).
edge(294, 374).
edge(294, 414).
edge(294, 4).
edge(294, 44).
edge(294, 84).
edge(294, 124).
edge(294, 164).
edge(294, 204).
edge(294, 244).
edge(295, 335).
edge(295, 375).
edge(295, 415).
edge(295, 5).
edge(295, 45).
edge(295, 85).
edge(295, 125).
edge(295, 165).
edge(295, 205).
edge(295, 245).
edge(296, 336).
edge(296, 376).
edge(296, 416).
edge(296, 6).
edge(296, 46).
edge(296, 86).
edge(296, 126).
edge(296, 166).
edge(296, 206).
edge(296, 246).
edge(297, 337).
edge(297, 377).
edge(297, 417).
edge(297, 7).
edge(297, 47).
edge(297, 87).
edge(297, 127).
edge(297, 167).
edge(297, 207).
edge(297, 247).
edge(298, 338).
edge(298, 378).
edge(298, 418).
edge(298, 8).
edge(298, 48).
edge(298, 88).
edge(298, 128).
edge(298, 168).
edge(298, 208).
edge(298, 248).
edge(299, 339).
edge(299, 379).
edge(299, 419).
edge(299, 9).
edge(299, 49).
edge(299, 89).
edge(299, 129).
edge(299, 169).
edge(299, 209).
edge(299, 249).
edge(300, 340).
edge(300, 380).
edge(300, 420).
edge(300, 10).
edge(300, 50).
edge(300, 90).
edge(300, 130).
edge(300, 170).
edge(300, 210).
edge(300, 250).
edge(301, 341).
edge(301, 381).
edge(301, 421).
edge(301, 11).
edge(301, 51).
edge(301, 91).
edge(301, 131).
edge(301, 171).
edge(301, 211).
edge(301, 251).
edge(302, 342).
edge(302, 382).
edge(302, 422).
edge(302, 12).
edge(302, 52).
edge(302, 92).
edge(302, 132).
edge(302, 172).
edge(302, 212).
edge(302, 252).
edge(303, 343).
edge(303, 383).
edge(303, 423).
edge(303, 13).
edge(303, 53).
edge(303, 93).
edge(303, 133).
edge(303, 173).
edge(303, 213).
edge(303, 253).
edge(304, 344).
edge(304, 384).
edge(304, 424).
edge(304, 14).
edge(304, 54).
edge(304, 94).
edge(304, 134).
edge(304, 174).
edge(304, 214).
edge(304, 254).
edge(305, 345).
edge(305, 385).
edge(305, 425).
edge(305, 15).
edge(305, 55).
edge(305, 95).
edge(305, 135).
edge(305, 175).
edge(305, 215).
edge(305, 255).
edge(306, 346).
edge(306, 386).
edge(306, 426).
edge(306, 16).
edge(306, 56).
edge(306, 96).
edge(306, 136).
edge(306, 176).
edge(306, 216).
edge(306, 256).
edge(307, 347).
edge(307, 387).
edge(307, 427).
edge(307, 17).
edge(307, 57).
edge(307, 97).
edge(307, 137).
edge(307, 177).
edge(307, 217).
edge(307, 257).
edge(308, 348).
edge(308, 388).
edge(308, 428).
edge(308, 18).
edge(308, 58).
edge(308, 98).
edge(308, 138).
edge(308, 178).
edge(308, 218).
edge(308, 258).
edge(309, 349).
edge(309, 389).
edge(309, 429).
edge(309, 19).
edge(309, 59).
edge(309, 99).
edge(309, 139).
edge(309, 179).
edge(309, 219).
edge(309, 259).
edge(310, 350).
edge(310, 390).
edge(310, 430).
edge(310, 20).
edge(310, 60).
edge(310, 100).
edge(310, 140).
edge(310, 180).
edge(310, 220).
edge(310, 260).
edge(311, 351).
edge(311, 391).
edge(311, 431).
edge(311, 21).
edge(311, 61).
edge(311, 101).
edge(311, 141).
edge(311, 181).
edge(311, 221).
edge(311, 261).
edge(312, 352).
edge(312, 392).
edge(312, 432).
edge(312, 22).
edge(312, 62).
edge(312, 102).
edge(312, 142).
edge(312, 182).
edge(312, 222).
edge(312, 262).
edge(313, 353).
edge(313, 393).
edge(313, 433).
edge(313, 23).
edge(313, 63).
edge(313, 103).
edge(313, 143).
edge(313, 183).
edge(313, 223).
edge(313, 263).
edge(314, 354).
edge(314, 394).
edge(314, 434).
edge(314, 24).
edge(314, 64).
edge(314, 104).
edge(314, 144).
edge(314, 184).
edge(314, 224).
edge(314, 264).
edge(315, 355).
edge(315, 395).
edge(315, 435).
edge(315, 25).
edge(315, 65).
edge(315, 105).
edge(315, 145).
edge(315, 185).
edge(315, 225).
edge(315, 265).
edge(316, 356).
edge(316, 396).
edge(316, 436).
edge(316, 26).
edge(316, 66).
edge(316, 106).
edge(316, 146).
edge(316, 186).
edge(316, 226).
edge(316, 266).
edge(317, 357).
edge(317, 397).
edge(317, 437).
edge(317, 27).
edge(317, 67).
edge(317, 107).
edge(317, 147).
edge(317, 187).
edge(317, 227).
edge(317, 267).
edge(318, 358).
edge(318, 398).
edge(318, 438).
edge(318, 28).
edge(318, 68).
edge(318, 108).
edge(318, 148).
edge(318, 188).
edge(318, 228).
edge(318, 268).
edge(319, 359).
edge(319, 399).
edge(319, 439).
edge(319, 29).
edge(319, 69).
edge(319, 109).
edge(319, 149).
edge(319, 189).
edge(319, 229).
edge(319, 269).
edge(320, 360).
edge(320, 400).
edge(320, 440).
edge(320, 30).
edge(320, 70).
edge(320, 110).
edge(320, 150).
edge(320, 190).
edge(320, 230).
edge(320, 270).
edge(321, 361).
edge(321, 401).
edge(321, 441).
edge(321, 31).
edge(321, 71).
edge(321, 111).
edge(321, 151).
edge(321, 191).
edge(321, 231).
edge(321, 271).
edge(322, 362).
edge(322, 402).
edge(322, 442).
edge(322, 32).
edge(322, 72).
edge(322, 112).
edge(322, 152).
edge(322, 192).
edge(322, 232).
edge(322, 272).
edge(323, 363).
edge(323, 403).
edge(323, 443).
edge(323, 33).
edge(323, 73).
edge(323, 113).
edge(323, 153).
edge(323, 193).
edge(323, 233).
edge(323, 273).
edge(324, 364).
edge(324, 404).
edge(324, 444).
edge(324, 34).
edge(324, 74).
edge(324, 114).
edge(324, 154).
edge(324, 194).
edge(324, 234).
edge(324, 274).
edge(325, 365).
edge(325, 405).
edge(325, 445).
edge(325, 35).
edge(325, 75).
edge(325, 115).
edge(325, 155).
edge(325, 195).
edge(325, 235).
edge(325, 275).
edge(326, 366).
edge(326, 406).
edge(326, 446).
edge(326, 36).
edge(326, 76).
edge(326, 116).
edge(326, 156).
edge(326, 196).
edge(326, 236).
edge(326, 276).
edge(327, 367).
edge(327, 407).
edge(327, 447).
edge(327, 37).
edge(327, 77).
edge(327, 117).
edge(327, 157).
edge(327, 197).
edge(327, 237).
edge(327, 277).
edge(328, 368).
edge(328, 408).
edge(328, 448).
edge(328, 38).
edge(328, 78).
edge(328, 118).
edge(328, 158).
edge(328, 198).
edge(328, 238).
edge(328, 278).
edge(329, 369).
edge(329, 409).
edge(329, 449).
edge(329, 39).
edge(329, 79).
edge(329, 119).
edge(329, 159).
edge(329, 199).
edge(329, 239).
edge(329, 279).
edge(330, 370).
edge(330, 410).
edge(330, 450).
edge(330, 40).
edge(330, 80).
edge(330, 120).
edge(330, 160).
edge(330, 200).
edge(330, 240).
edge(330, 280).
edge(331, 371).
edge(331, 411).
edge(331, 1).
edge(331, 41).
edge(331, 81).
edge(331, 121).
edge(331, 161).
edge(331, 201).
edge(331, 241).
edge(331, 281).
edge(332, 372).
edge(332, 412).
edge(332, 2).
edge(332, 42).
edge(332, 82).
edge(332, 122).
edge(332, 162).
edge(332, 202).
edge(332, 242).
edge(332, 282).
edge(333, 373).
edge(333, 413).
edge(333, 3).
edge(333, 43).
edge(333, 83).
edge(333, 123).
edge(333, 163).
edge(333, 203).
edge(333, 243).
edge(333, 283).
edge(334, 374).
edge(334, 414).
edge(334, 4).
edge(334, 44).
edge(334, 84).
edge(334, 124).
edge(334, 164).
edge(334, 204).
edge(334, 244).
edge(334, 284).
edge(335, 375).
edge(335, 415).
edge(335, 5).
edge(335, 45).
edge(335, 85).
edge(335, 125).
edge(335, 165).
edge(335, 205).
edge(335, 245).
edge(335, 285).
edge(336, 376).
edge(336, 416).
edge(336, 6).
edge(336, 46).
edge(336, 86).
edge(336, 126).
edge(336, 166).
edge(336, 206).
edge(336, 246).
edge(336, 286).
edge(337, 377).
edge(337, 417).
edge(337, 7).
edge(337, 47).
edge(337, 87).
edge(337, 127).
edge(337, 167).
edge(337, 207).
edge(337, 247).
edge(337, 287).
edge(338, 378).
edge(338, 418).
edge(338, 8).
edge(338, 48).
edge(338, 88).
edge(338, 128).
edge(338, 168).
edge(338, 208).
edge(338, 248).
edge(338, 288).
edge(339, 379).
edge(339, 419).
edge(339, 9).
edge(339, 49).
edge(339, 89).
edge(339, 129).
edge(339, 169).
edge(339, 209).
edge(339, 249).
edge(339, 289).
edge(340, 380).
edge(340, 420).
edge(340, 10).
edge(340, 50).
edge(340, 90).
edge(340, 130).
edge(340, 170).
edge(340, 210).
edge(340, 250).
edge(340, 290).
edge(341, 381).
edge(341, 421).
edge(341, 11).
edge(341, 51).
edge(341, 91).
edge(341, 131).
edge(341, 171).
edge(341, 211).
edge(341, 251).
edge(341, 291).
edge(342, 382).
edge(342, 422).
edge(342, 12).
edge(342, 52).
edge(342, 92).
edge(342, 132).
edge(342, 172).
edge(342, 212).
edge(342, 252).
edge(342, 292).
edge(343, 383).
edge(343, 423).
edge(343, 13).
edge(343, 53).
edge(343, 93).
edge(343, 133).
edge(343, 173).
edge(343, 213).
edge(343, 253).
edge(343, 293).
edge(344, 384).
edge(344, 424).
edge(344, 14).
edge(344, 54).
edge(344, 94).
edge(344, 134).
edge(344, 174).
edge(344, 214).
edge(344, 254).
edge(344, 294).
edge(345, 385).
edge(345, 425).
edge(345, 15).
edge(345, 55).
edge(345, 95).
edge(345, 135).
edge(345, 175).
edge(345, 215).
edge(345, 255).
edge(345, 295).
edge(346, 386).
edge(346, 426).
edge(346, 16).
edge(346, 56).
edge(346, 96).
edge(346, 136).
edge(346, 176).
edge(346, 216).
edge(346, 256).
edge(346, 296).
edge(347, 387).
edge(347, 427).
edge(347, 17).
edge(347, 57).
edge(347, 97).
edge(347, 137).
edge(347, 177).
edge(347, 217).
edge(347, 257).
edge(347, 297).
edge(348, 388).
edge(348, 428).
edge(348, 18).
edge(348, 58).
edge(348, 98).
edge(348, 138).
edge(348, 178).
edge(348, 218).
edge(348, 258).
edge(348, 298).
edge(349, 389).
edge(349, 429).
edge(349, 19).
edge(349, 59).
edge(349, 99).
edge(349, 139).
edge(349, 179).
edge(349, 219).
edge(349, 259).
edge(349, 299).
edge(350, 390).
edge(350, 430).
edge(350, 20).
edge(350, 60).
edge(350, 100).
edge(350, 140).
edge(350, 180).
edge(350, 220).
edge(350, 260).
edge(350, 300).
edge(351, 391).
edge(351, 431).
edge(351, 21).
edge(351, 61).
edge(351, 101).
edge(351, 141).
edge(351, 181).
edge(351, 221).
edge(351, 261).
edge(351, 301).
edge(352, 392).
edge(352, 432).
edge(352, 22).
edge(352, 62).
edge(352, 102).
edge(352, 142).
edge(352, 182).
edge(352, 222).
edge(352, 262).
edge(352, 302).
edge(353, 393).
edge(353, 433).
edge(353, 23).
edge(353, 63).
edge(353, 103).
edge(353, 143).
edge(353, 183).
edge(353, 223).
edge(353, 263).
edge(353, 303).
edge(354, 394).
edge(354, 434).
edge(354, 24).
edge(354, 64).
edge(354, 104).
edge(354, 144).
edge(354, 184).
edge(354, 224).
edge(354, 264).
edge(354, 304).
edge(355, 395).
edge(355, 435).
edge(355, 25).
edge(355, 65).
edge(355, 105).
edge(355, 145).
edge(355, 185).
edge(355, 225).
edge(355, 265).
edge(355, 305).
edge(356, 396).
edge(356, 436).
edge(356, 26).
edge(356, 66).
edge(356, 106).
edge(356, 146).
edge(356, 186).
edge(356, 226).
edge(356, 266).
edge(356, 306).
edge(357, 397).
edge(357, 437).
edge(357, 27).
edge(357, 67).
edge(357, 107).
edge(357, 147).
edge(357, 187).
edge(357, 227).
edge(357, 267).
edge(357, 307).
edge(358, 398).
edge(358, 438).
edge(358, 28).
edge(358, 68).
edge(358, 108).
edge(358, 148).
edge(358, 188).
edge(358, 228).
edge(358, 268).
edge(358, 308).
edge(359, 399).
edge(359, 439).
edge(359, 29).
edge(359, 69).
edge(359, 109).
edge(359, 149).
edge(359, 189).
edge(359, 229).
edge(359, 269).
edge(359, 309).
edge(360, 400).
edge(360, 440).
edge(360, 30).
edge(360, 70).
edge(360, 110).
edge(360, 150).
edge(360, 190).
edge(360, 230).
edge(360, 270).
edge(360, 310).
edge(361, 401).
edge(361, 441).
edge(361, 31).
edge(361, 71).
edge(361, 111).
edge(361, 151).
edge(361, 191).
edge(361, 231).
edge(361, 271).
edge(361, 311).
edge(362, 402).
edge(362, 442).
edge(362, 32).
edge(362, 72).
edge(362, 112).
edge(362, 152).
edge(362, 192).
edge(362, 232).
edge(362, 272).
edge(362, 312).
edge(363, 403).
edge(363, 443).
edge(363, 33).
edge(363, 73).
edge(363, 113).
edge(363, 153).
edge(363, 193).
edge(363, 233).
edge(363, 273).
edge(363, 313).
edge(364, 404).
edge(364, 444).
edge(364, 34).
edge(364, 74).
edge(364, 114).
edge(364, 154).
edge(364, 194).
edge(364, 234).
edge(364, 274).
edge(364, 314).
edge(365, 405).
edge(365, 445).
edge(365, 35).
edge(365, 75).
edge(365, 115).
edge(365, 155).
edge(365, 195).
edge(365, 235).
edge(365, 275).
edge(365, 315).
edge(366, 406).
edge(366, 446).
edge(366, 36).
edge(366, 76).
edge(366, 116).
edge(366, 156).
edge(366, 196).
edge(366, 236).
edge(366, 276).
edge(366, 316).
edge(367, 407).
edge(367, 447).
edge(367, 37).
edge(367, 77).
edge(367, 117).
edge(367, 157).
edge(367, 197).
edge(367, 237).
edge(367, 277).
edge(367, 317).
edge(368, 408).
edge(368, 448).
edge(368, 38).
edge(368, 78).
edge(368, 118).
edge(368, 158).
edge(368, 198).
edge(368, 238).
edge(368, 278).
edge(368, 318).
edge(369, 409).
edge(369, 449).
edge(369, 39).
edge(369, 79).
edge(369, 119).
edge(369, 159).
edge(369, 199).
edge(369, 239).
edge(369, 279).
edge(369, 319).
edge(370, 410).
edge(370, 450).
edge(370, 40).
edge(370, 80).
edge(370, 120).
edge(370, 160).
edge(370, 200).
edge(370, 240).
edge(370, 280).
edge(370, 320).
edge(371, 411).
edge(371, 1).
edge(371, 41).
edge(371, 81).
edge(371, 121).
edge(371, 161).
edge(371, 201).
edge(371, 241).
edge(371, 281).
edge(371, 321).
edge(372, 412).
edge(372, 2).
edge(372, 42).
edge(372, 82).
edge(372, 122).
edge(372, 162).
edge(372, 202).
edge(372, 242).
edge(372, 282).
edge(372, 322).
edge(373, 413).
edge(373, 3).
edge(373, 43).
edge(373, 83).
edge(373, 123).
edge(373, 163).
edge(373, 203).
edge(373, 243).
edge(373, 283).
edge(373, 323).
edge(374, 414).
edge(374, 4).
edge(374, 44).
edge(374, 84).
edge(374, 124).
edge(374, 164).
edge(374, 204).
edge(374, 244).
edge(374, 284).
edge(374, 324).
edge(375, 415).
edge(375, 5).
edge(375, 45).
edge(375, 85).
edge(375, 125).
edge(375, 165).
edge(375, 205).
edge(375, 245).
edge(375, 285).
edge(375, 325).
edge(376, 416).
edge(376, 6).
edge(376, 46).
edge(376, 86).
edge(376, 126).
edge(376, 166).
edge(376, 206).
edge(376, 246).
edge(376, 286).
edge(376, 326).
edge(377, 417).
edge(377, 7).
edge(377, 47).
edge(377, 87).
edge(377, 127).
edge(377, 167).
edge(377, 207).
edge(377, 247).
edge(377, 287).
edge(377, 327).
edge(378, 418).
edge(378, 8).
edge(378, 48).
edge(378, 88).
edge(378, 128).
edge(378, 168).
edge(378, 208).
edge(378, 248).
edge(378, 288).
edge(378, 328).
edge(379, 419).
edge(379, 9).
edge(379, 49).
edge(379, 89).
edge(379, 129).
edge(379, 169).
edge(379, 209).
edge(379, 249).
edge(379, 289).
edge(379, 329).
edge(380, 420).
edge(380, 10).
edge(380, 50).
edge(380, 90).
edge(380, 130).
edge(380, 170).
edge(380, 210).
edge(380, 250).
edge(380, 290).
edge(380, 330).
edge(381, 421).
edge(381, 11).
edge(381, 51).
edge(381, 91).
edge(381, 131).
edge(381, 171).
edge(381, 211).
edge(381, 251).
edge(381, 291).
edge(381, 331).
edge(382, 422).
edge(382, 12).
edge(382, 52).
edge(382, 92).
edge(382, 132).
edge(382, 172).
edge(382, 212).
edge(382, 252).
edge(382, 292).
edge(382, 332).
edge(383, 423).
edge(383, 13).
edge(383, 53).
edge(383, 93).
edge(383, 133).
edge(383, 173).
edge(383, 213).
edge(383, 253).
edge(383, 293).
edge(383, 333).
edge(384, 424).
edge(384, 14).
edge(384, 54).
edge(384, 94).
edge(384, 134).
edge(384, 174).
edge(384, 214).
edge(384, 254).
edge(384, 294).
edge(384, 334).
edge(385, 425).
edge(385, 15).
edge(385, 55).
edge(385, 95).
edge(385, 135).
edge(385, 175).
edge(385, 215).
edge(385, 255).
edge(385, 295).
edge(385, 335).
edge(386, 426).
edge(386, 16).
edge(386, 56).
edge(386, 96).
edge(386, 136).
edge(386, 176).
edge(386, 216).
edge(386, 256).
edge(386, 296).
edge(386, 336).
edge(387, 427).
edge(387, 17).
edge(387, 57).
edge(387, 97).
edge(387, 137).
edge(387, 177).
edge(387, 217).
edge(387, 257).
edge(387, 297).
edge(387, 337).
edge(388, 428).
edge(388, 18).
edge(388, 58).
edge(388, 98).
edge(388, 138).
edge(388, 178).
edge(388, 218).
edge(388, 258).
edge(388, 298).
edge(388, 338).
edge(389, 429).
edge(389, 19).
edge(389, 59).
edge(389, 99).
edge(389, 139).
edge(389, 179).
edge(389, 219).
edge(389, 259).
edge(389, 299).
edge(389, 339).
edge(390, 430).
edge(390, 20).
edge(390, 60).
edge(390, 100).
edge(390, 140).
edge(390, 180).
edge(390, 220).
edge(390, 260).
edge(390, 300).
edge(390, 340).
edge(391, 431).
edge(391, 21).
edge(391, 61).
edge(391, 101).
edge(391, 141).
edge(391, 181).
edge(391, 221).
edge(391, 261).
edge(391, 301).
edge(391, 341).
edge(392, 432).
edge(392, 22).
edge(392, 62).
edge(392, 102).
edge(392, 142).
edge(392, 182).
edge(392, 222).
edge(392, 262).
edge(392, 302).
edge(392, 342).
edge(393, 433).
edge(393, 23).
edge(393, 63).
edge(393, 103).
edge(393, 143).
edge(393, 183).
edge(393, 223).
edge(393, 263).
edge(393, 303).
edge(393, 343).
edge(394, 434).
edge(394, 24).
edge(394, 64).
edge(394, 104).
edge(394, 144).
edge(394, 184).
edge(394, 224).
edge(394, 264).
edge(394, 304).
edge(394, 344).
edge(395, 435).
edge(395, 25).
edge(395, 65).
edge(395, 105).
edge(395, 145).
edge(395, 185).
edge(395, 225).
edge(395, 265).
edge(395, 305).
edge(395, 345).
edge(396, 436).
edge(396, 26).
edge(396, 66).
edge(396, 106).
edge(396, 146).
edge(396, 186).
edge(396, 226).
edge(396, 266).
edge(396, 306).
edge(396, 346).
edge(397, 437).
edge(397, 27).
edge(397, 67).
edge(397, 107).
edge(397, 147).
edge(397, 187).
edge(397, 227).
edge(397, 267).
edge(397, 307).
edge(397, 347).
edge(398, 438).
edge(398, 28).
edge(398, 68).
edge(398, 108).
edge(398, 148).
edge(398, 188).
edge(398, 228).
edge(398, 268).
edge(398, 308).
edge(398, 348).
edge(399, 439).
edge(399, 29).
edge(399, 69).
edge(399, 109).
edge(399, 149).
edge(399, 189).
edge(399, 229).
edge(399, 269).
edge(399, 309).
edge(399, 349).
edge(400, 440).
edge(400, 30).
edge(400, 70).
edge(400, 110).
edge(400, 150).
edge(400, 190).
edge(400, 230).
edge(400, 270).
edge(400, 310).
edge(400, 350).
edge(401, 441).
edge(401, 31).
edge(401, 71).
edge(401, 111).
edge(401, 151).
edge(401, 191).
edge(401, 231).
edge(401, 271).
edge(401, 311).
edge(401, 351).
edge(402, 442).
edge(402, 32).
edge(402, 72).
edge(402, 112).
edge(402, 152).
edge(402, 192).
edge(402, 232).
edge(402, 272).
edge(402, 312).
edge(402, 352).
edge(403, 443).
edge(403, 33).
edge(403, 73).
edge(403, 113).
edge(403, 153).
edge(403, 193).
edge(403, 233).
edge(403, 273).
edge(403, 313).
edge(403, 353).
edge(404, 444).
edge(404, 34).
edge(404, 74).
edge(404, 114).
edge(404, 154).
edge(404, 194).
edge(404, 234).
edge(404, 274).
edge(404, 314).
edge(404, 354).
edge(405, 445).
edge(405, 35).
edge(405, 75).
edge(405, 115).
edge(405, 155).
edge(405, 195).
edge(405, 235).
edge(405, 275).
edge(405, 315).
edge(405, 355).
edge(406, 446).
edge(406, 36).
edge(406, 76).
edge(406, 116).
edge(406, 156).
edge(406, 196).
edge(406, 236).
edge(406, 276).
edge(406, 316).
edge(406, 356).
edge(407, 447).
edge(407, 37).
edge(407, 77).
edge(407, 117).
edge(407, 157).
edge(407, 197).
edge(407, 237).
edge(407, 277).
edge(407, 317).
edge(407, 357).
edge(408, 448).
edge(408, 38).
edge(408, 78).
edge(408, 118).
edge(408, 158).
edge(408, 198).
edge(408, 238).
edge(408, 278).
edge(408, 318).
edge(408, 358).
edge(409, 449).
edge(409, 39).
edge(409, 79).
edge(409, 119).
edge(409, 159).
edge(409, 199).
edge(409, 239).
edge(409, 279).
edge(409, 319).
edge(409, 359).
edge(410, 450).
edge(410, 40).
edge(410, 80).
edge(410, 120).
edge(410, 160).
edge(410, 200).
edge(410, 240).
edge(410, 280).
edge(410, 320).
edge(410, 360).
edge(411, 1).
edge(411, 41).
edge(411, 81).
edge(411, 121).
edge(411, 161).
edge(411, 201).
edge(411, 241).
edge(411, 281).
edge(411, 321).
edge(411, 361).
edge(412, 2).
edge(412, 42).
edge(412, 82).
edge(412, 122).
edge(412, 162).
edge(412, 202).
edge(412, 242).
edge(412, 282).
edge(412, 322).
edge(412, 362).
edge(413, 3).
edge(413, 43).
edge(413, 83).
edge(413, 123).
edge(413, 163).
edge(413, 203).
edge(413, 243).
edge(413, 283).
edge(413, 323).
edge(413, 363).
edge(414, 4).
edge(414, 44).
edge(414, 84).
edge(414, 124).
edge(414, 164).
edge(414, 204).
edge(414, 244).
edge(414, 284).
edge(414, 324).
edge(414, 364).
edge(415, 5).
edge(415, 45).
edge(415, 85).
edge(415, 125).
edge(415, 165).
edge(415, 205).
edge(415, 245).
edge(415, 285).
edge(415, 325).
edge(415, 365).
edge(416, 6).
edge(416, 46).
edge(416, 86).
edge(416, 126).
edge(416, 166).
edge(416, 206).
edge(416, 246).
edge(416, 286).
edge(416, 326).
edge(416, 366).
edge(417, 7).
edge(417, 47).
edge(417, 87).
edge(417, 127).
edge(417, 167).
edge(417, 207).
edge(417, 247).
edge(417, 287).
edge(417, 327).
edge(417, 367).
edge(418, 8).
edge(418, 48).
edge(418, 88).
edge(418, 128).
edge(418, 168).
edge(418, 208).
edge(418, 248).
edge(418, 288).
edge(418, 328).
edge(418, 368).
edge(419, 9).
edge(419, 49).
edge(419, 89).
edge(419, 129).
edge(419, 169).
edge(419, 209).
edge(419, 249).
edge(419, 289).
edge(419, 329).
edge(419, 369).
edge(420, 10).
edge(420, 50).
edge(420, 90).
edge(420, 130).
edge(420, 170).
edge(420, 210).
edge(420, 250).
edge(420, 290).
edge(420, 330).
edge(420, 370).
edge(421, 11).
edge(421, 51).
edge(421, 91).
edge(421, 131).
edge(421, 171).
edge(421, 211).
edge(421, 251).
edge(421, 291).
edge(421, 331).
edge(421, 371).
edge(422, 12).
edge(422, 52).
edge(422, 92).
edge(422, 132).
edge(422, 172).
edge(422, 212).
edge(422, 252).
edge(422, 292).
edge(422, 332).
edge(422, 372).
edge(423, 13).
edge(423, 53).
edge(423, 93).
edge(423, 133).
edge(423, 173).
edge(423, 213).
edge(423, 253).
edge(423, 293).
edge(423, 333).
edge(423, 373).
edge(424, 14).
edge(424, 54).
edge(424, 94).
edge(424, 134).
edge(424, 174).
edge(424, 214).
edge(424, 254).
edge(424, 294).
edge(424, 334).
edge(424, 374).
edge(425, 15).
edge(425, 55).
edge(425, 95).
edge(425, 135).
edge(425, 175).
edge(425, 215).
edge(425, 255).
edge(425, 295).
edge(425, 335).
edge(425, 375).
edge(426, 16).
edge(426, 56).
edge(426, 96).
edge(426, 136).
edge(426, 176).
edge(426, 216).
edge(426, 256).
edge(426, 296).
edge(426, 336).
edge(426, 376).
edge(427, 17).
edge(427, 57).
edge(427, 97).
edge(427, 137).
edge(427, 177).
edge(427, 217).
edge(427, 257).
edge(427, 297).
edge(427, 337).
edge(427, 377).
edge(428, 18).
edge(428, 58).
edge(428, 98).
edge(428, 138).
edge(428, 178).
edge(428, 218).
edge(428, 258).
edge(428, 298).
edge(428, 338).
edge(428, 378).
edge(429, 19).
edge(429, 59).
edge(429, 99).
edge(429, 139).
edge(429, 179).
edge(429, 219).
edge(429, 259).
edge(429, 299).
edge(429, 339).
edge(429, 379).
edge(430, 20).
edge(430, 60).
edge(430, 100).
edge(430, 140).
edge(430, 180).
edge(430, 220).
edge(430, 260).
edge(430, 300).
edge(430, 340).
edge(430, 380).
edge(431, 21).
edge(431, 61).
edge(431, 101).
edge(431, 141).
edge(431, 181).
edge(431, 221).
edge(431, 261).
edge(431, 301).
edge(431, 341).
edge(431, 381).
edge(432, 22).
edge(432, 62).
edge(432, 102).
edge(432, 142).
edge(432, 182).
edge(432, 222).
edge(432, 262).
edge(432, 302).
edge(432, 342).
edge(432, 382).
edge(433, 23).
edge(433, 63).
edge(433, 103).
edge(433, 143).
edge(433, 183).
edge(433, 223).
edge(433, 263).
edge(433, 303).
edge(433, 343).
edge(433, 383).
edge(434, 24).
edge(434, 64).
edge(434, 104).
edge(434, 144).
edge(434, 184).
edge(434, 224).
edge(434, 264).
edge(434, 304).
edge(434, 344).
edge(434, 384).
edge(435, 25).
edge(435, 65).
edge(435, 105).
edge(435, 145).
edge(435, 185).
edge(435, 225).
edge(435, 265).
edge(435, 305).
edge(435, 345).
edge(435, 385).
edge(436, 26).
edge(436, 66).
edge(436, 106).
edge(436, 146).
edge(436, 186).
edge(436, 226).
edge(436, 266).
edge(436, 306).
edge(436, 346).
edge(436, 386).
edge(437, 27).
edge(437, 67).
edge(437, 107).
edge(437, 147).
edge(437, 187).
edge(437, 227).
edge(437, 267).
edge(437, 307).
edge(437, 347).
edge(437, 387).
edge(438, 28).
edge(438, 68).
edge(438, 108).
edge(438, 148).
edge(438, 188).
edge(438, 228).
edge(438, 268).
edge(438, 308).
edge(438, 348).
edge(438, 388).
edge(439, 29).
edge(439, 69).
edge(439, 109).
edge(439, 149).
edge(439, 189).
edge(439, 229).
edge(439, 269).
edge(439, 309).
edge(439, 349).
edge(439, 389).
edge(440, 30).
edge(440, 70).
edge(440, 110).
edge(440, 150).
edge(440, 190).
edge(440, 230).
edge(440, 270).
edge(440, 310).
edge(440, 350).
edge(440, 390).
edge(441, 31).
edge(441, 71).
edge(441, 111).
edge(441, 151).
edge(441, 191).
edge(441, 231).
edge(441, 271).
edge(441, 311).
edge(441, 351).
edge(441, 391).
edge(442, 32).
edge(442, 72).
edge(442, 112).
edge(442, 152).
edge(442, 192).
edge(442, 232).
edge(442, 272).
edge(442, 312).
edge(442, 352).
edge(442, 392).
edge(443, 33).
edge(443, 73).
edge(443, 113).
edge(443, 153).
edge(443, 193).
edge(443, 233).
edge(443, 273).
edge(443, 313).
edge(443, 353).
edge(443, 393).
edge(444, 34).
edge(444, 74).
edge(444, 114).
edge(444, 154).
edge(444, 194).
edge(444, 234).
edge(444, 274).
edge(444, 314).
edge(444, 354).
edge(444, 394).
edge(445, 35).
edge(445, 75).
edge(445, 115).
edge(445, 155).
edge(445, 195).
edge(445, 235).
edge(445, 275).
edge(445, 315).
edge(445, 355).
edge(445, 395).
edge(446, 36).
edge(446, 76).
edge(446, 116).
edge(446, 156).
edge(446, 196).
edge(446, 236).
edge(446, 276).
edge(446, 316).
edge(446, 356).
edge(446, 396).
edge(447, 37).
edge(447, 77).
edge(447, 117).
edge(447, 157).
edge(447, 197).
edge(447, 237).
edge(447, 277).
edge(447, 317).
edge(447, 357).
edge(447, 397).
edge(448, 38).
edge(448, 78).
edge(448, 118).
edge(448, 158).
edge(448, 198).
edge(448, 238).
edge(448, 278).
edge(448, 318).
edge(448, 358).
edge(448, 398).
edge(449, 39).
edge(449, 79).
edge(449, 119).
edge(449, 159).
edge(449, 199).
edge(449, 239).
edge(449, 279).
edge(449, 319).
edge(449, 359).
edge(449, 399).
edge(450, 40).
edge(450, 80).
edge(450, 120).
edge(450, 160).
edge(450, 200).
edge(450, 240).
edge(450, 280).
edge(450, 320).
edge(450, 360).
edge(450, 400).
