edge(2, 1).
edge(3, 1).
edge(3, 2).
edge(4, 1).
edge(4, 2).
edge(4, 3).
edge(5, 1).
edge(5, 2).
edge(5, 3).
edge(5, 4).
edge(6, 1).
edge(6, 2).
edge(6, 3).
edge(6, 4).
edge(6, 5).
edge(7, 1).
edge(7, 2).
edge(7, 3).
edge(7, 4).
edge(7, 5).
edge(7, 6).
edge(8, 1).
edge(8, 2).
edge(8, 3).
edge(8, 4).
edge(8, 5).
edge(8, 6).
edge(8, 7).
edge(9, 1).
edge(9, 2).
edge(9, 3).
edge(9, 4).
edge(9, 5).
edge(9, 6).
edge(9, 7).
edge(9, 8).
edge(10, 1).
edge(10, 2).
edge(10, 3).
edge(10, 4).
edge(10, 5).
edge(10, 6).
edge(10, 7).
edge(10, 8).
edge(10, 9).
edge(11, 1).
edge(11, 2).
edge(11, 3).
edge(11, 4).
edge(11, 5).
edge(11, 6).
edge(11, 7).
edge(11, 8).
edge(11, 9).
edge(11, 10).
edge(12, 1).
edge(12, 2).
edge(12, 3).
edge(12, 4).
edge(12, 5).
edge(12, 6).
edge(12, 7).
edge(12, 8).
edge(12, 9).
edge(12, 10).
edge(12, 11).
edge(13, 1).
edge(13, 2).
edge(13, 3).
edge(13, 4).
edge(13, 5).
edge(13, 6).
edge(13, 7).
edge(13, 8).
edge(13, 9).
edge(13, 10).
edge(13, 11).
edge(13, 12).
edge(14, 1).
edge(14, 2).
edge(14, 3).
edge(14, 4).
edge(14, 5).
edge(14, 6).
edge(14, 7).
edge(14, 8).
edge(14, 9).
edge(14, 10).
edge(14, 11).
edge(14, 12).
edge(14, 13).
edge(15, 1).
edge(15, 2).
edge(15, 3).
edge(15, 4).
edge(15, 5).
edge(15, 6).
edge(15, 7).
edge(15, 8).
edge(15, 9).
edge(15, 10).
edge(15, 11).
edge(15, 12).
edge(15, 13).
edge(15, 14).
edge(16, 1).
edge(16, 2).
edge(16, 3).
edge(16, 4).
edge(16, 5).
edge(16, 6).
edge(16, 7).
edge(16, 8).
edge(16, 9).
edge(16, 10).
edge(16, 11).
edge(16, 12).
edge(16, 13).
edge(16, 14).
edge(16, 15).
edge(17, 1).
edge(17, 2).
edge(17, 3).
edge(17, 4).
edge(17, 5).
edge(17, 6).
edge(17, 7).
edge(17, 8).
edge(17, 9).
edge(17, 10).
edge(17, 11).
edge(17, 12).
edge(17, 13).
edge(17, 14).
edge(17, 15).
edge(17, 16).
edge(18, 1).
edge(18, 2).
edge(18, 3).
edge(18, 4).
edge(18, 5).
edge(18, 6).
edge(18, 7).
edge(18, 8).
edge(18, 9).
edge(18, 10).
edge(18, 11).
edge(18, 12).
edge(18, 13).
edge(18, 14).
edge(18, 15).
edge(18, 16).
edge(18, 17).
edge(19, 1).
edge(19, 2).
edge(19, 3).
edge(19, 4).
edge(19, 5).
edge(19, 6).
edge(19, 7).
edge(19, 8).
edge(19, 9).
edge(19, 10).
edge(19, 11).
edge(19, 12).
edge(19, 13).
edge(19, 14).
edge(19, 15).
edge(19, 16).
edge(19, 17).
edge(19, 18).
edge(20, 1).
edge(20, 2).
edge(20, 3).
edge(20, 4).
edge(20, 5).
edge(20, 6).
edge(20, 7).
edge(20, 8).
edge(20, 9).
edge(20, 10).
edge(20, 11).
edge(20, 12).
edge(20, 13).
edge(20, 14).
edge(20, 15).
edge(20, 16).
edge(20, 17).
edge(20, 18).
edge(20, 19).
edge(21, 1).
edge(21, 2).
edge(21, 3).
edge(21, 4).
edge(21, 5).
edge(21, 6).
edge(21, 7).
edge(21, 8).
edge(21, 9).
edge(21, 10).
edge(21, 11).
edge(21, 12).
edge(21, 13).
edge(21, 14).
edge(21, 15).
edge(21, 16).
edge(21, 17).
edge(21, 18).
edge(21, 19).
edge(21, 20).
edge(22, 1).
edge(22, 2).
edge(22, 3).
edge(22, 4).
edge(22, 5).
edge(22, 6).
edge(22, 7).
edge(22, 8).
edge(22, 9).
edge(22, 10).
edge(22, 11).
edge(22, 12).
edge(22, 13).
edge(22, 14).
edge(22, 15).
edge(22, 16).
edge(22, 17).
edge(22, 18).
edge(22, 19).
edge(22, 20).
edge(22, 21).
edge(23, 1).
edge(23, 2).
edge(23, 3).
edge(23, 4).
edge(23, 5).
edge(23, 6).
edge(23, 7).
edge(23, 8).
edge(23, 9).
edge(23, 10).
edge(23, 11).
edge(23, 12).
edge(23, 13).
edge(23, 14).
edge(23, 15).
edge(23, 16).
edge(23, 17).
edge(23, 18).
edge(23, 19).
edge(23, 20).
edge(23, 21).
edge(23, 22).
edge(24, 1).
edge(24, 2).
edge(24, 3).
edge(24, 4).
edge(24, 5).
edge(24, 6).
edge(24, 7).
edge(24, 8).
edge(24, 9).
edge(24, 10).
edge(24, 11).
edge(24, 12).
edge(24, 13).
edge(24, 14).
edge(24, 15).
edge(24, 16).
edge(24, 17).
edge(24, 18).
edge(24, 19).
edge(24, 20).
edge(24, 21).
edge(24, 22).
edge(24, 23).
edge(25, 1).
edge(25, 2).
edge(25, 3).
edge(25, 4).
edge(25, 5).
edge(25, 6).
edge(25, 7).
edge(25, 8).
edge(25, 9).
edge(25, 10).
edge(25, 11).
edge(25, 12).
edge(25, 13).
edge(25, 14).
edge(25, 15).
edge(25, 16).
edge(25, 17).
edge(25, 18).
edge(25, 19).
edge(25, 20).
edge(25, 21).
edge(25, 22).
edge(25, 23).
edge(25, 24).
edge(26, 1).
edge(26, 2).
edge(26, 3).
edge(26, 4).
edge(26, 5).
edge(26, 6).
edge(26, 7).
edge(26, 8).
edge(26, 9).
edge(26, 10).
edge(26, 11).
edge(26, 12).
edge(26, 13).
edge(26, 14).
edge(26, 15).
edge(26, 16).
edge(26, 17).
edge(26, 18).
edge(26, 19).
edge(26, 20).
edge(26, 21).
edge(26, 22).
edge(26, 23).
edge(26, 24).
edge(26, 25).
edge(27, 1).
edge(27, 2).
edge(27, 3).
edge(27, 4).
edge(27, 5).
edge(27, 6).
edge(27, 7).
edge(27, 8).
edge(27, 9).
edge(27, 10).
edge(27, 11).
edge(27, 12).
edge(27, 13).
edge(27, 14).
edge(27, 15).
edge(27, 16).
edge(27, 17).
edge(27, 18).
edge(27, 19).
edge(27, 20).
edge(27, 21).
edge(27, 22).
edge(27, 23).
edge(27, 24).
edge(27, 25).
edge(27, 26).
edge(28, 1).
edge(28, 2).
edge(28, 3).
edge(28, 4).
edge(28, 5).
edge(28, 6).
edge(28, 7).
edge(28, 8).
edge(28, 9).
edge(28, 10).
edge(28, 11).
edge(28, 12).
edge(28, 13).
edge(28, 14).
edge(28, 15).
edge(28, 16).
edge(28, 17).
edge(28, 18).
edge(28, 19).
edge(28, 20).
edge(28, 21).
edge(28, 22).
edge(28, 23).
edge(28, 24).
edge(28, 25).
edge(28, 26).
edge(28, 27).
edge(29, 1).
edge(29, 2).
edge(29, 3).
edge(29, 4).
edge(29, 5).
edge(29, 6).
edge(29, 7).
edge(29, 8).
edge(29, 9).
edge(29, 10).
edge(29, 11).
edge(29, 12).
edge(29, 13).
edge(29, 14).
edge(29, 15).
edge(29, 16).
edge(29, 17).
edge(29, 18).
edge(29, 19).
edge(29, 20).
edge(29, 21).
edge(29, 22).
edge(29, 23).
edge(29, 24).
edge(29, 25).
edge(29, 26).
edge(29, 27).
edge(29, 28).
edge(30, 1).
edge(30, 2).
edge(30, 3).
edge(30, 4).
edge(30, 5).
edge(30, 6).
edge(30, 7).
edge(30, 8).
edge(30, 9).
edge(30, 10).
edge(30, 11).
edge(30, 12).
edge(30, 13).
edge(30, 14).
edge(30, 15).
edge(30, 16).
edge(30, 17).
edge(30, 18).
edge(30, 19).
edge(30, 20).
edge(30, 21).
edge(30, 22).
edge(30, 23).
edge(30, 24).
edge(30, 25).
edge(30, 26).
edge(30, 27).
edge(30, 28).
edge(30, 29).
