edge(2, 1).
edge(3, 1).
edge(3, 2).
edge(4, 1).
edge(4, 2).
edge(4, 3).
edge(5, 1).
edge(5, 2).
edge(5, 3).
edge(5, 4).
edge(6, 1).
edge(6, 2).
edge(6, 3).
edge(6, 4).
edge(6, 5).
edge(7, 1).
edge(7, 2).
edge(7, 3).
edge(7, 4).
edge(7, 5).
edge(7, 6).
edge(8, 1).
edge(8, 2).
edge(8, 3).
edge(8, 4).
edge(8, 5).
edge(8, 6).
edge(8, 7).
edge(9, 1).
edge(9, 2).
edge(9, 3).
edge(9, 4).
edge(9, 5).
edge(9, 6).
edge(9, 7).
edge(9, 8).
edge(10, 1).
edge(10, 2).
edge(10, 3).
edge(10, 4).
edge(10, 5).
edge(10, 6).
edge(10, 7).
edge(10, 8).
edge(10, 9).
edge(11, 1).
edge(11, 2).
edge(11, 3).
edge(11, 4).
edge(11, 5).
edge(11, 6).
edge(11, 7).
edge(11, 8).
edge(11, 9).
edge(11, 10).
edge(12, 1).
edge(12, 2).
edge(12, 3).
edge(12, 4).
edge(12, 5).
edge(12, 6).
edge(12, 7).
edge(12, 8).
edge(12, 9).
edge(12, 10).
edge(12, 11).
edge(13, 1).
edge(13, 2).
edge(13, 3).
edge(13, 4).
edge(13, 5).
edge(13, 6).
edge(13, 7).
edge(13, 8).
edge(13, 9).
edge(13, 10).
edge(13, 11).
edge(13, 12).
edge(14, 1).
edge(14, 2).
edge(14, 3).
edge(14, 4).
edge(14, 5).
edge(14, 6).
edge(14, 7).
edge(14, 8).
edge(14, 9).
edge(14, 10).
edge(14, 11).
edge(14, 12).
edge(14, 13).
edge(15, 1).
edge(15, 2).
edge(15, 3).
edge(15, 4).
edge(15, 5).
edge(15, 6).
edge(15, 7).
edge(15, 8).
edge(15, 9).
edge(15, 10).
edge(15, 11).
edge(15, 12).
edge(15, 13).
edge(15, 14).
edge(16, 1).
edge(16, 2).
edge(16, 3).
edge(16, 4).
edge(16, 5).
edge(16, 6).
edge(16, 7).
edge(16, 8).
edge(16, 9).
edge(16, 10).
edge(16, 11).
edge(16, 12).
edge(16, 13).
edge(16, 14).
edge(16, 15).
edge(17, 1).
edge(17, 2).
edge(17, 3).
edge(17, 4).
edge(17, 5).
edge(17, 6).
edge(17, 7).
edge(17, 8).
edge(17, 9).
edge(17, 10).
edge(17, 11).
edge(17, 12).
edge(17, 13).
edge(17, 14).
edge(17, 15).
edge(17, 16).
edge(18, 1).
edge(18, 2).
edge(18, 3).
edge(18, 4).
edge(18, 5).
edge(18, 6).
edge(18, 7).
edge(18, 8).
edge(18, 9).
edge(18, 10).
edge(18, 11).
edge(18, 12).
edge(18, 13).
edge(18, 14).
edge(18, 15).
edge(18, 16).
edge(18, 17).
edge(19, 1).
edge(19, 2).
edge(19, 3).
edge(19, 4).
edge(19, 5).
edge(19, 6).
edge(19, 7).
edge(19, 8).
edge(19, 9).
edge(19, 10).
edge(19, 11).
edge(19, 12).
edge(19, 13).
edge(19, 14).
edge(19, 15).
edge(19, 16).
edge(19, 17).
edge(19, 18).
edge(20, 1).
edge(20, 2).
edge(20, 3).
edge(20, 4).
edge(20, 5).
edge(20, 6).
edge(20, 7).
edge(20, 8).
edge(20, 9).
edge(20, 10).
edge(20, 11).
edge(20, 12).
edge(20, 13).
edge(20, 14).
edge(20, 15).
edge(20, 16).
edge(20, 17).
edge(20, 18).
edge(20, 19).
