edge(2, 1).
edge(3, 1).
edge(3, 2).
edge(4, 1).
edge(4, 2).
edge(4, 3).
edge(5, 1).
edge(5, 2).
edge(5, 3).
edge(5, 4).
edge(6, 1).
edge(6, 2).
edge(6, 3).
edge(6, 4).
edge(6, 5).
edge(7, 1).
edge(7, 2).
edge(7, 3).
edge(7, 4).
edge(7, 5).
edge(7, 6).
edge(8, 1).
edge(8, 2).
edge(8, 3).
edge(8, 4).
edge(8, 5).
edge(8, 6).
edge(8, 7).
edge(9, 1).
edge(9, 2).
edge(9, 3).
edge(9, 4).
edge(9, 5).
edge(9, 6).
edge(9, 7).
edge(9, 8).
edge(10, 1).
edge(10, 2).
edge(10, 3).
edge(10, 4).
edge(10, 5).
edge(10, 6).
edge(10, 7).
edge(10, 8).
edge(10, 9).
