edge(1, 2).
edge(1, 3).
edge(1, 4).
edge(1, 6).
edge(1, 8).
edge(1, 10).
edge(1, 11).
edge(1, 12).
edge(1, 14).
edge(1, 15).
edge(1, 18).
edge(1, 19).
edge(1, 20).
edge(1, 21).
edge(1, 23).
edge(1, 24).
edge(1, 26).
edge(1, 29).
edge(1, 33).
edge(1, 37).
edge(1, 39).
edge(1, 45).
edge(1, 46).
edge(1, 48).
edge(1, 51).
edge(1, 58).
edge(1, 61).
edge(1, 62).
edge(1, 69).
edge(2, 4).
edge(2, 5).
edge(2, 7).
edge(2, 8).
edge(2, 9).
edge(2, 16).
edge(2, 18).
edge(2, 22).
edge(2, 28).
edge(2, 29).
edge(2, 44).
edge(2, 46).
edge(2, 50).
edge(2, 66).
edge(2, 68).
edge(3, 5).
edge(3, 17).
edge(3, 42).
edge(3, 58).
edge(4, 9).
edge(5, 6).
edge(5, 7).
edge(5, 13).
edge(5, 14).
edge(5, 16).
edge(5, 17).
edge(5, 19).
edge(5, 20).
edge(5, 24).
edge(5, 31).
edge(5, 37).
edge(5, 41).
edge(5, 54).
edge(5, 63).
edge(5, 65).
edge(5, 70).
edge(6, 12).
edge(6, 13).
edge(6, 23).
edge(6, 25).
edge(6, 31).
edge(6, 34).
edge(6, 35).
edge(6, 40).
edge(6, 43).
edge(6, 63).
edge(6, 68).
edge(7, 10).
edge(7, 30).
edge(7, 32).
edge(7, 38).
edge(7, 51).
edge(7, 56).
edge(7, 61).
edge(8, 60).
edge(9, 11).
edge(9, 15).
edge(9, 21).
edge(9, 27).
edge(11, 33).
edge(11, 52).
edge(11, 59).
edge(12, 62).
edge(13, 38).
edge(14, 27).
edge(14, 41).
edge(16, 47).
edge(16, 48).
edge(17, 22).
edge(17, 34).
edge(17, 44).
edge(17, 50).
edge(17, 69).
edge(18, 39).
edge(18, 47).
edge(18, 53).
edge(19, 52).
edge(19, 55).
edge(20, 25).
edge(22, 26).
edge(22, 35).
edge(23, 43).
edge(25, 28).
edge(25, 36).
edge(26, 36).
edge(27, 30).
edge(27, 65).
edge(27, 66).
edge(28, 45).
edge(28, 57).
edge(30, 32).
edge(32, 40).
edge(32, 56).
edge(32, 57).
edge(34, 49).
edge(34, 60).
edge(35, 59).
edge(38, 42).
edge(38, 54).
edge(44, 49).
edge(46, 64).
edge(46, 70).
edge(50, 53).
edge(50, 55).
edge(51, 67).
edge(53, 64).
edge(62, 67).
