edge(1, 2).
edge(1, 3).
edge(1, 4).
edge(1, 6).
edge(1, 8).
edge(1, 10).
edge(1, 11).
edge(1, 12).
edge(1, 14).
edge(1, 15).
edge(1, 18).
edge(1, 19).
edge(1, 20).
edge(1, 21).
edge(1, 23).
edge(1, 24).
edge(1, 26).
edge(1, 29).
edge(2, 4).
edge(2, 5).
edge(2, 7).
edge(2, 8).
edge(2, 9).
edge(2, 16).
edge(2, 18).
edge(2, 22).
edge(2, 28).
edge(2, 29).
edge(3, 5).
edge(3, 17).
edge(4, 9).
edge(5, 6).
edge(5, 7).
edge(5, 13).
edge(5, 14).
edge(5, 16).
edge(5, 17).
edge(5, 19).
edge(5, 20).
edge(5, 24).
edge(6, 12).
edge(6, 13).
edge(6, 23).
edge(6, 25).
edge(7, 10).
edge(7, 30).
edge(9, 11).
edge(9, 15).
edge(9, 21).
edge(9, 27).
edge(14, 27).
edge(17, 22).
edge(20, 25).
edge(22, 26).
edge(25, 28).
edge(27, 30).
