edge(1, 2).
edge(1, 3).
edge(1, 4).
edge(1, 6).
edge(1, 8).
edge(1, 10).
edge(1, 11).
edge(1, 12).
edge(1, 14).
edge(1, 15).
edge(1, 18).
edge(1, 19).
edge(1, 20).
edge(1, 21).
edge(1, 23).
edge(1, 24).
edge(1, 26).
edge(1, 29).
edge(1, 33).
edge(1, 37).
edge(1, 39).
edge(1, 45).
edge(1, 46).
edge(1, 48).
edge(1, 51).
edge(1, 58).
edge(1, 61).
edge(1, 62).
edge(1, 69).
edge(1, 72).
edge(1, 78).
edge(1, 79).
edge(1, 87).
edge(1, 89).
edge(1, 92).
edge(1, 99).
edge(1, 104).
edge(1, 108).
edge(1, 111).
edge(1, 117).
edge(1, 119).
edge(1, 123).
edge(1, 131).
edge(1, 140).
edge(1, 141).
edge(1, 202).
edge(1, 235).
edge(1, 241).
edge(1, 242).
edge(1, 256).
edge(1, 268).
edge(1, 269).
edge(1, 272).
edge(1, 285).
edge(1, 290).
edge(1, 305).
edge(1, 319).
edge(1, 326).
edge(1, 353).
edge(1, 368).
edge(1, 383).
edge(1, 385).
edge(1, 392).
edge(1, 399).
edge(1, 435).
edge(2, 4).
edge(2, 5).
edge(2, 7).
edge(2, 8).
edge(2, 9).
edge(2, 16).
edge(2, 18).
edge(2, 22).
edge(2, 28).
edge(2, 29).
edge(2, 44).
edge(2, 46).
edge(2, 50).
edge(2, 66).
edge(2, 68).
edge(2, 76).
edge(2, 79).
edge(2, 98).
edge(2, 100).
edge(2, 107).
edge(2, 113).
edge(2, 126).
edge(2, 134).
edge(2, 138).
edge(2, 141).
edge(2, 142).
edge(2, 144).
edge(2, 157).
edge(2, 176).
edge(2, 178).
edge(2, 190).
edge(2, 196).
edge(2, 197).
edge(2, 200).
edge(2, 205).
edge(2, 211).
edge(2, 213).
edge(2, 233).
edge(2, 252).
edge(2, 254).
edge(2, 266).
edge(2, 268).
edge(2, 276).
edge(2, 299).
edge(2, 305).
edge(2, 307).
edge(2, 354).
edge(2, 359).
edge(2, 381).
edge(2, 402).
edge(2, 426).
edge(2, 446).
edge(3, 5).
edge(3, 17).
edge(3, 42).
edge(3, 58).
edge(3, 80).
edge(3, 103).
edge(3, 167).
edge(3, 176).
edge(3, 193).
edge(3, 199).
edge(3, 239).
edge(3, 358).
edge(4, 9).
edge(4, 218).
edge(4, 315).
edge(4, 373).
edge(4, 374).
edge(4, 442).
edge(5, 6).
edge(5, 7).
edge(5, 13).
edge(5, 14).
edge(5, 16).
edge(5, 17).
edge(5, 19).
edge(5, 20).
edge(5, 24).
edge(5, 31).
edge(5, 37).
edge(5, 41).
edge(5, 54).
edge(5, 63).
edge(5, 65).
edge(5, 70).
edge(5, 75).
edge(5, 81).
edge(5, 84).
edge(5, 87).
edge(5, 88).
edge(5, 94).
edge(5, 100).
edge(5, 103).
edge(5, 115).
edge(5, 118).
edge(5, 155).
edge(5, 158).
edge(5, 175).
edge(5, 181).
edge(5, 193).
edge(5, 195).
edge(5, 201).
edge(5, 208).
edge(5, 219).
edge(5, 228).
edge(5, 250).
edge(5, 254).
edge(5, 287).
edge(5, 289).
edge(5, 298).
edge(5, 317).
edge(5, 327).
edge(5, 378).
edge(5, 391).
edge(5, 406).
edge(5, 441).
edge(5, 450).
edge(6, 12).
edge(6, 13).
edge(6, 23).
edge(6, 25).
edge(6, 31).
edge(6, 34).
edge(6, 35).
edge(6, 40).
edge(6, 43).
edge(6, 63).
edge(6, 68).
edge(6, 136).
edge(6, 328).
edge(6, 348).
edge(7, 10).
edge(7, 30).
edge(7, 32).
edge(7, 38).
edge(7, 51).
edge(7, 56).
edge(7, 61).
edge(7, 83).
edge(7, 102).
edge(7, 106).
edge(7, 111).
edge(7, 116).
edge(7, 134).
edge(7, 144).
edge(7, 149).
edge(7, 155).
edge(7, 162).
edge(7, 183).
edge(7, 192).
edge(7, 204).
edge(7, 232).
edge(7, 249).
edge(7, 304).
edge(7, 319).
edge(7, 337).
edge(7, 357).
edge(7, 371).
edge(7, 398).
edge(7, 407).
edge(7, 409).
edge(7, 417).
edge(7, 432).
edge(7, 448).
edge(8, 60).
edge(8, 130).
edge(9, 11).
edge(9, 15).
edge(9, 21).
edge(9, 27).
edge(9, 118).
edge(9, 122).
edge(9, 279).
edge(10, 105).
edge(10, 125).
edge(10, 150).
edge(10, 235).
edge(10, 348).
edge(10, 350).
edge(10, 418).
edge(11, 33).
edge(11, 52).
edge(11, 59).
edge(11, 86).
edge(11, 96).
edge(11, 106).
edge(11, 109).
edge(11, 122).
edge(11, 207).
edge(11, 234).
edge(11, 407).
edge(12, 62).
edge(12, 226).
edge(12, 232).
edge(12, 246).
edge(12, 299).
edge(12, 325).
edge(12, 342).
edge(12, 358).
edge(12, 383).
edge(12, 423).
edge(13, 38).
edge(13, 85).
edge(13, 206).
edge(13, 345).
edge(13, 390).
edge(14, 27).
edge(14, 41).
edge(14, 117).
edge(14, 129).
edge(15, 124).
edge(15, 135).
edge(15, 150).
edge(15, 281).
edge(15, 395).
edge(16, 47).
edge(16, 48).
edge(16, 74).
edge(16, 119).
edge(16, 128).
edge(16, 132).
edge(16, 143).
edge(16, 189).
edge(16, 217).
edge(16, 236).
edge(16, 238).
edge(16, 259).
edge(16, 282).
edge(16, 330).
edge(16, 332).
edge(16, 377).
edge(16, 384).
edge(16, 386).
edge(16, 433).
edge(16, 437).
edge(16, 447).
edge(17, 22).
edge(17, 34).
edge(17, 44).
edge(17, 50).
edge(17, 69).
edge(17, 97).
edge(17, 114).
edge(17, 147).
edge(17, 149).
edge(17, 152).
edge(17, 168).
edge(17, 203).
edge(17, 220).
edge(17, 247).
edge(17, 318).
edge(17, 326).
edge(17, 385).
edge(17, 392).
edge(17, 429).
edge(18, 39).
edge(18, 47).
edge(18, 53).
edge(18, 148).
edge(18, 347).
edge(19, 52).
edge(19, 55).
edge(19, 112).
edge(19, 162).
edge(19, 168).
edge(20, 25).
edge(20, 154).
edge(20, 173).
edge(20, 237).
edge(20, 265).
edge(21, 166).
edge(21, 169).
edge(21, 393).
edge(22, 26).
edge(22, 35).
edge(22, 76).
edge(22, 437).
edge(23, 43).
edge(23, 77).
edge(23, 152).
edge(23, 153).
edge(23, 158).
edge(23, 159).
edge(23, 175).
edge(23, 346).
edge(25, 28).
edge(25, 36).
edge(25, 73).
edge(25, 135).
edge(26, 36).
edge(26, 136).
edge(26, 191).
edge(26, 194).
edge(26, 222).
edge(26, 256).
edge(26, 281).
edge(26, 336).
edge(26, 380).
edge(26, 449).
edge(27, 30).
edge(27, 65).
edge(27, 66).
edge(27, 85).
edge(27, 92).
edge(27, 110).
edge(27, 129).
edge(27, 172).
edge(27, 261).
edge(27, 292).
edge(27, 296).
edge(28, 45).
edge(28, 57).
edge(28, 91).
edge(28, 93).
edge(28, 107).
edge(28, 120).
edge(28, 165).
edge(28, 169).
edge(28, 289).
edge(28, 291).
edge(28, 295).
edge(28, 335).
edge(28, 375).
edge(28, 379).
edge(29, 181).
edge(29, 343).
edge(30, 32).
edge(30, 225).
edge(30, 246).
edge(30, 282).
edge(30, 438).
edge(31, 99).
edge(31, 200).
edge(32, 40).
edge(32, 56).
edge(32, 57).
edge(32, 182).
edge(32, 243).
edge(32, 251).
edge(32, 283).
edge(32, 444).
edge(33, 82).
edge(33, 83).
edge(33, 156).
edge(34, 49).
edge(34, 60).
edge(34, 98).
edge(34, 128).
edge(34, 189).
edge(34, 233).
edge(34, 314).
edge(35, 59).
edge(35, 205).
edge(35, 311).
edge(36, 72).
edge(36, 90).
edge(36, 164).
edge(36, 172).
edge(36, 312).
edge(36, 334).
edge(36, 416).
edge(38, 42).
edge(38, 54).
edge(38, 82).
edge(38, 109).
edge(38, 131).
edge(38, 260).
edge(38, 431).
edge(40, 71).
edge(40, 204).
edge(40, 223).
edge(40, 249).
edge(40, 293).
edge(41, 362).
edge(41, 397).
edge(42, 94).
edge(42, 145).
edge(42, 184).
edge(42, 214).
edge(42, 304).
edge(43, 224).
edge(44, 49).
edge(44, 81).
edge(44, 215).
edge(44, 230).
edge(44, 284).
edge(44, 310).
edge(44, 341).
edge(44, 349).
edge(45, 137).
edge(45, 332).
edge(45, 333).
edge(46, 64).
edge(46, 70).
edge(46, 400).
edge(48, 218).
edge(48, 244).
edge(48, 267).
edge(49, 132).
edge(49, 341).
edge(50, 53).
edge(50, 55).
edge(50, 77).
edge(50, 96).
edge(50, 116).
edge(50, 126).
edge(50, 139).
edge(50, 154).
edge(50, 187).
edge(50, 197).
edge(50, 267).
edge(50, 278).
edge(50, 335).
edge(50, 336).
edge(50, 339).
edge(50, 365).
edge(50, 377).
edge(50, 391).
edge(50, 393).
edge(50, 403).
edge(50, 404).
edge(50, 408).
edge(50, 424).
edge(51, 67).
edge(51, 73).
edge(51, 89).
edge(51, 146).
edge(51, 253).
edge(51, 396).
edge(51, 402).
edge(53, 64).
edge(53, 163).
edge(53, 422).
edge(54, 125).
edge(54, 302).
edge(55, 120).
edge(55, 167).
edge(55, 442).
edge(56, 186).
edge(56, 209).
edge(56, 257).
edge(57, 139).
edge(57, 170).
edge(57, 264).
edge(57, 288).
edge(58, 71).
edge(58, 86).
edge(58, 95).
edge(58, 147).
edge(59, 228).
edge(59, 303).
edge(60, 97).
edge(60, 446).
edge(61, 352).
edge(61, 356).
edge(61, 424).
edge(62, 67).
edge(62, 121).
edge(62, 133).
edge(62, 190).
edge(62, 239).
edge(62, 309).
edge(62, 334).
edge(63, 88).
edge(63, 114).
edge(63, 115).
edge(63, 137).
edge(63, 194).
edge(63, 215).
edge(63, 311).
edge(63, 324).
edge(64, 367).
edge(64, 420).
edge(65, 80).
edge(65, 173).
edge(65, 308).
edge(66, 133).
edge(66, 153).
edge(66, 210).
edge(66, 223).
edge(66, 262).
edge(66, 271).
edge(66, 327).
edge(66, 372).
edge(66, 409).
edge(67, 74).
edge(67, 75).
edge(67, 185).
edge(67, 350).
edge(67, 436).
edge(67, 440).
edge(68, 108).
edge(68, 220).
edge(69, 161).
edge(69, 244).
edge(69, 263).
edge(70, 78).
edge(70, 90).
edge(70, 101).
edge(70, 102).
edge(70, 143).
edge(70, 163).
edge(70, 171).
edge(70, 182).
edge(70, 188).
edge(70, 245).
edge(70, 280).
edge(70, 344).
edge(71, 130).
edge(72, 184).
edge(72, 255).
edge(73, 101).
edge(73, 192).
edge(73, 266).
edge(73, 308).
edge(73, 397).
edge(73, 425).
edge(75, 84).
edge(75, 174).
edge(75, 221).
edge(76, 113).
edge(76, 127).
edge(76, 138).
edge(76, 178).
edge(76, 364).
edge(78, 146).
edge(78, 212).
edge(78, 287).
edge(78, 403).
edge(79, 165).
edge(79, 180).
edge(79, 188).
edge(79, 191).
edge(79, 295).
edge(79, 376).
edge(80, 91).
edge(80, 93).
edge(80, 248).
edge(81, 206).
edge(81, 361).
edge(83, 105).
edge(83, 127).
edge(83, 161).
edge(83, 166).
edge(83, 195).
edge(83, 240).
edge(83, 361).
edge(85, 124).
edge(86, 123).
edge(86, 227).
edge(86, 278).
edge(86, 357).
edge(86, 410).
edge(87, 242).
edge(87, 328).
edge(87, 376).
edge(88, 95).
edge(88, 110).
edge(88, 159).
edge(88, 355).
edge(89, 275).
edge(90, 186).
edge(92, 230).
edge(92, 238).
edge(93, 104).
edge(93, 164).
edge(93, 211).
edge(94, 208).
edge(94, 221).
edge(94, 297).
edge(94, 434).
edge(95, 112).
edge(95, 198).
edge(95, 274).
edge(97, 174).
edge(97, 203).
edge(97, 425).
edge(100, 226).
edge(100, 400).
edge(101, 252).
edge(101, 421).
edge(102, 142).
edge(102, 284).
edge(103, 259).
edge(104, 280).
edge(104, 362).
edge(105, 140).
edge(108, 217).
edge(108, 315).
edge(108, 390).
edge(110, 271).
edge(111, 394).
edge(112, 310).
edge(112, 367).
edge(112, 406).
edge(113, 121).
edge(113, 420).
edge(113, 426).
edge(114, 250).
edge(114, 255).
edge(114, 353).
edge(114, 366).
edge(115, 323).
edge(117, 344).
edge(120, 229).
edge(120, 273).
edge(126, 401).
edge(127, 145).
edge(127, 286).
edge(127, 340).
edge(127, 388).
edge(127, 410).
edge(127, 441).
edge(128, 386).
edge(129, 300).
edge(129, 347).
edge(130, 292).
edge(131, 151).
edge(131, 419).
edge(132, 171).
edge(133, 251).
edge(133, 302).
edge(133, 316).
edge(135, 300).
edge(136, 160).
edge(138, 151).
edge(138, 157).
edge(138, 366).
edge(140, 170).
edge(140, 177).
edge(140, 258).
edge(140, 338).
edge(141, 148).
edge(141, 276).
edge(141, 329).
edge(141, 418).
edge(141, 436).
edge(142, 202).
edge(142, 316).
edge(142, 324).
edge(142, 364).
edge(143, 303).
edge(144, 179).
edge(144, 183).
edge(144, 301).
edge(144, 427).
edge(145, 387).
edge(145, 388).
edge(146, 199).
edge(146, 309).
edge(147, 160).
edge(147, 430).
edge(148, 156).
edge(148, 443).
edge(149, 270).
edge(149, 380).
edge(150, 253).
edge(151, 245).
edge(151, 275).
edge(151, 351).
edge(151, 413).
edge(152, 439).
edge(153, 408).
edge(154, 432).
edge(155, 247).
edge(155, 320).
edge(156, 262).
edge(157, 185).
edge(157, 434).
edge(158, 270).
edge(159, 177).
edge(159, 396).
edge(159, 411).
edge(159, 419).
edge(159, 445).
edge(161, 213).
edge(161, 231).
edge(161, 279).
edge(161, 343).
edge(162, 359).
edge(163, 261).
edge(164, 422).
edge(166, 306).
edge(166, 384).
edge(167, 272).
edge(170, 337).
edge(171, 234).
edge(172, 180).
edge(173, 179).
edge(173, 210).
edge(173, 414).
edge(174, 277).
edge(174, 306).
edge(174, 331).
edge(174, 363).
edge(174, 423).
edge(175, 339).
edge(176, 240).
edge(177, 209).
edge(177, 265).
edge(177, 373).
edge(178, 187).
edge(178, 258).
edge(179, 201).
edge(180, 369).
edge(182, 225).
edge(183, 198).
edge(184, 395).
edge(187, 433).
edge(189, 248).
edge(189, 444).
edge(189, 447).
edge(191, 219).
edge(191, 354).
edge(191, 412).
edge(192, 196).
edge(192, 371).
edge(194, 214).
edge(197, 318).
edge(197, 381).
edge(199, 285).
edge(200, 237).
edge(202, 212).
edge(202, 229).
edge(202, 264).
edge(202, 273).
edge(202, 320).
edge(204, 224).
edge(204, 236).
edge(204, 283).
edge(204, 330).
edge(206, 207).
edge(206, 231).
edge(206, 298).
edge(207, 216).
edge(207, 286).
edge(207, 413).
edge(207, 438).
edge(210, 216).
edge(210, 222).
edge(210, 269).
edge(210, 333).
edge(210, 370).
edge(211, 312).
edge(215, 314).
edge(217, 321).
edge(217, 349).
edge(218, 241).
edge(218, 340).
edge(220, 288).
edge(220, 291).
edge(220, 415).
edge(222, 227).
edge(223, 260).
edge(224, 375).
edge(225, 378).
edge(227, 243).
edge(228, 445).
edge(229, 296).
edge(233, 387).
edge(235, 338).
edge(236, 293).
edge(239, 257).
edge(240, 290).
edge(240, 294).
edge(240, 389).
edge(241, 313).
edge(241, 355).
edge(243, 342).
edge(246, 405).
edge(247, 448).
edge(250, 382).
edge(250, 427).
edge(251, 325).
edge(252, 323).
edge(252, 394).
edge(253, 374).
edge(254, 450).
edge(262, 263).
edge(264, 274).
edge(266, 277).
edge(267, 399).
edge(269, 301).
edge(271, 429).
edge(271, 431).
edge(274, 294).
edge(274, 414).
edge(275, 369).
edge(278, 321).
edge(278, 382).
edge(279, 307).
edge(280, 313).
edge(282, 322).
edge(283, 297).
edge(284, 416).
edge(287, 398).
edge(291, 331).
edge(291, 352).
edge(292, 368).
edge(294, 389).
edge(296, 443).
edge(297, 317).
edge(297, 360).
edge(297, 439).
edge(300, 412).
edge(304, 428).
edge(308, 430).
edge(311, 322).
edge(313, 356).
edge(321, 329).
edge(329, 440).
edge(333, 405).
edge(334, 372).
edge(334, 421).
edge(335, 345).
edge(336, 346).
edge(341, 370).
edge(342, 411).
edge(345, 351).
edge(349, 360).
edge(356, 363).
edge(356, 404).
edge(359, 365).
edge(362, 417).
edge(365, 435).
edge(371, 401).
edge(373, 428).
edge(378, 379).
edge(384, 415).
edge(423, 449).
