edge(1, 2).
edge(1, 3).
edge(1, 4).
edge(1, 6).
edge(1, 8).
edge(1, 10).
edge(1, 11).
edge(1, 12).
edge(1, 14).
edge(1, 15).
edge(1, 18).
edge(1, 19).
edge(1, 20).
edge(1, 21).
edge(1, 23).
edge(1, 24).
edge(1, 26).
edge(1, 29).
edge(1, 33).
edge(1, 37).
edge(1, 39).
edge(1, 45).
edge(1, 46).
edge(1, 48).
edge(1, 51).
edge(1, 58).
edge(1, 61).
edge(1, 62).
edge(1, 69).
edge(1, 72).
edge(1, 78).
edge(1, 79).
edge(1, 87).
edge(1, 89).
edge(1, 92).
edge(1, 99).
edge(1, 104).
edge(1, 108).
edge(1, 111).
edge(1, 117).
edge(1, 119).
edge(1, 123).
edge(1, 131).
edge(1, 140).
edge(1, 141).
edge(1, 202).
edge(1, 235).
edge(1, 241).
edge(1, 242).
edge(1, 256).
edge(1, 268).
edge(1, 269).
edge(1, 272).
edge(1, 285).
edge(1, 290).
edge(2, 4).
edge(2, 5).
edge(2, 7).
edge(2, 8).
edge(2, 9).
edge(2, 16).
edge(2, 18).
edge(2, 22).
edge(2, 28).
edge(2, 29).
edge(2, 44).
edge(2, 46).
edge(2, 50).
edge(2, 66).
edge(2, 68).
edge(2, 76).
edge(2, 79).
edge(2, 98).
edge(2, 100).
edge(2, 107).
edge(2, 113).
edge(2, 126).
edge(2, 134).
edge(2, 138).
edge(2, 141).
edge(2, 142).
edge(2, 144).
edge(2, 157).
edge(2, 176).
edge(2, 178).
edge(2, 190).
edge(2, 196).
edge(2, 197).
edge(2, 200).
edge(2, 205).
edge(2, 211).
edge(2, 213).
edge(2, 233).
edge(2, 252).
edge(2, 254).
edge(2, 266).
edge(2, 268).
edge(2, 276).
edge(2, 299).
edge(3, 5).
edge(3, 17).
edge(3, 42).
edge(3, 58).
edge(3, 80).
edge(3, 103).
edge(3, 167).
edge(3, 176).
edge(3, 193).
edge(3, 199).
edge(3, 239).
edge(4, 9).
edge(4, 218).
edge(5, 6).
edge(5, 7).
edge(5, 13).
edge(5, 14).
edge(5, 16).
edge(5, 17).
edge(5, 19).
edge(5, 20).
edge(5, 24).
edge(5, 31).
edge(5, 37).
edge(5, 41).
edge(5, 54).
edge(5, 63).
edge(5, 65).
edge(5, 70).
edge(5, 75).
edge(5, 81).
edge(5, 84).
edge(5, 87).
edge(5, 88).
edge(5, 94).
edge(5, 100).
edge(5, 103).
edge(5, 115).
edge(5, 118).
edge(5, 155).
edge(5, 158).
edge(5, 175).
edge(5, 181).
edge(5, 193).
edge(5, 195).
edge(5, 201).
edge(5, 208).
edge(5, 219).
edge(5, 228).
edge(5, 250).
edge(5, 254).
edge(5, 287).
edge(5, 289).
edge(5, 298).
edge(6, 12).
edge(6, 13).
edge(6, 23).
edge(6, 25).
edge(6, 31).
edge(6, 34).
edge(6, 35).
edge(6, 40).
edge(6, 43).
edge(6, 63).
edge(6, 68).
edge(6, 136).
edge(7, 10).
edge(7, 30).
edge(7, 32).
edge(7, 38).
edge(7, 51).
edge(7, 56).
edge(7, 61).
edge(7, 83).
edge(7, 102).
edge(7, 106).
edge(7, 111).
edge(7, 116).
edge(7, 134).
edge(7, 144).
edge(7, 149).
edge(7, 155).
edge(7, 162).
edge(7, 183).
edge(7, 192).
edge(7, 204).
edge(7, 232).
edge(7, 249).
edge(8, 60).
edge(8, 130).
edge(9, 11).
edge(9, 15).
edge(9, 21).
edge(9, 27).
edge(9, 118).
edge(9, 122).
edge(9, 279).
edge(10, 105).
edge(10, 125).
edge(10, 150).
edge(10, 235).
edge(11, 33).
edge(11, 52).
edge(11, 59).
edge(11, 86).
edge(11, 96).
edge(11, 106).
edge(11, 109).
edge(11, 122).
edge(11, 207).
edge(11, 234).
edge(12, 62).
edge(12, 226).
edge(12, 232).
edge(12, 246).
edge(12, 299).
edge(13, 38).
edge(13, 85).
edge(13, 206).
edge(14, 27).
edge(14, 41).
edge(14, 117).
edge(14, 129).
edge(15, 124).
edge(15, 135).
edge(15, 150).
edge(15, 281).
edge(16, 47).
edge(16, 48).
edge(16, 74).
edge(16, 119).
edge(16, 128).
edge(16, 132).
edge(16, 143).
edge(16, 189).
edge(16, 217).
edge(16, 236).
edge(16, 238).
edge(16, 259).
edge(16, 282).
edge(17, 22).
edge(17, 34).
edge(17, 44).
edge(17, 50).
edge(17, 69).
edge(17, 97).
edge(17, 114).
edge(17, 147).
edge(17, 149).
edge(17, 152).
edge(17, 168).
edge(17, 203).
edge(17, 220).
edge(17, 247).
edge(18, 39).
edge(18, 47).
edge(18, 53).
edge(18, 148).
edge(19, 52).
edge(19, 55).
edge(19, 112).
edge(19, 162).
edge(19, 168).
edge(20, 25).
edge(20, 154).
edge(20, 173).
edge(20, 237).
edge(20, 265).
edge(21, 166).
edge(21, 169).
edge(22, 26).
edge(22, 35).
edge(22, 76).
edge(23, 43).
edge(23, 77).
edge(23, 152).
edge(23, 153).
edge(23, 158).
edge(23, 159).
edge(23, 175).
edge(25, 28).
edge(25, 36).
edge(25, 73).
edge(25, 135).
edge(26, 36).
edge(26, 136).
edge(26, 191).
edge(26, 194).
edge(26, 222).
edge(26, 256).
edge(26, 281).
edge(27, 30).
edge(27, 65).
edge(27, 66).
edge(27, 85).
edge(27, 92).
edge(27, 110).
edge(27, 129).
edge(27, 172).
edge(27, 261).
edge(27, 292).
edge(27, 296).
edge(28, 45).
edge(28, 57).
edge(28, 91).
edge(28, 93).
edge(28, 107).
edge(28, 120).
edge(28, 165).
edge(28, 169).
edge(28, 289).
edge(28, 291).
edge(28, 295).
edge(29, 181).
edge(30, 32).
edge(30, 225).
edge(30, 246).
edge(30, 282).
edge(31, 99).
edge(31, 200).
edge(32, 40).
edge(32, 56).
edge(32, 57).
edge(32, 182).
edge(32, 243).
edge(32, 251).
edge(32, 283).
edge(33, 82).
edge(33, 83).
edge(33, 156).
edge(34, 49).
edge(34, 60).
edge(34, 98).
edge(34, 128).
edge(34, 189).
edge(34, 233).
edge(35, 59).
edge(35, 205).
edge(36, 72).
edge(36, 90).
edge(36, 164).
edge(36, 172).
edge(38, 42).
edge(38, 54).
edge(38, 82).
edge(38, 109).
edge(38, 131).
edge(38, 260).
edge(40, 71).
edge(40, 204).
edge(40, 223).
edge(40, 249).
edge(40, 293).
edge(42, 94).
edge(42, 145).
edge(42, 184).
edge(42, 214).
edge(43, 224).
edge(44, 49).
edge(44, 81).
edge(44, 215).
edge(44, 230).
edge(44, 284).
edge(45, 137).
edge(46, 64).
edge(46, 70).
edge(48, 218).
edge(48, 244).
edge(48, 267).
edge(49, 132).
edge(50, 53).
edge(50, 55).
edge(50, 77).
edge(50, 96).
edge(50, 116).
edge(50, 126).
edge(50, 139).
edge(50, 154).
edge(50, 187).
edge(50, 197).
edge(50, 267).
edge(50, 278).
edge(51, 67).
edge(51, 73).
edge(51, 89).
edge(51, 146).
edge(51, 253).
edge(53, 64).
edge(53, 163).
edge(54, 125).
edge(55, 120).
edge(55, 167).
edge(56, 186).
edge(56, 209).
edge(56, 257).
edge(57, 139).
edge(57, 170).
edge(57, 264).
edge(57, 288).
edge(58, 71).
edge(58, 86).
edge(58, 95).
edge(58, 147).
edge(59, 228).
edge(60, 97).
edge(62, 67).
edge(62, 121).
edge(62, 133).
edge(62, 190).
edge(62, 239).
edge(63, 88).
edge(63, 114).
edge(63, 115).
edge(63, 137).
edge(63, 194).
edge(63, 215).
edge(65, 80).
edge(65, 173).
edge(66, 133).
edge(66, 153).
edge(66, 210).
edge(66, 223).
edge(66, 262).
edge(66, 271).
edge(67, 74).
edge(67, 75).
edge(67, 185).
edge(68, 108).
edge(68, 220).
edge(69, 161).
edge(69, 244).
edge(69, 263).
edge(70, 78).
edge(70, 90).
edge(70, 101).
edge(70, 102).
edge(70, 143).
edge(70, 163).
edge(70, 171).
edge(70, 182).
edge(70, 188).
edge(70, 245).
edge(70, 280).
edge(71, 130).
edge(72, 184).
edge(72, 255).
edge(73, 101).
edge(73, 192).
edge(73, 266).
edge(75, 84).
edge(75, 174).
edge(75, 221).
edge(76, 113).
edge(76, 127).
edge(76, 138).
edge(76, 178).
edge(78, 146).
edge(78, 212).
edge(78, 287).
edge(79, 165).
edge(79, 180).
edge(79, 188).
edge(79, 191).
edge(79, 295).
edge(80, 91).
edge(80, 93).
edge(80, 248).
edge(81, 206).
edge(83, 105).
edge(83, 127).
edge(83, 161).
edge(83, 166).
edge(83, 195).
edge(83, 240).
edge(85, 124).
edge(86, 123).
edge(86, 227).
edge(86, 278).
edge(87, 242).
edge(88, 95).
edge(88, 110).
edge(88, 159).
edge(89, 275).
edge(90, 186).
edge(92, 230).
edge(92, 238).
edge(93, 104).
edge(93, 164).
edge(93, 211).
edge(94, 208).
edge(94, 221).
edge(94, 297).
edge(95, 112).
edge(95, 198).
edge(95, 274).
edge(97, 174).
edge(97, 203).
edge(100, 226).
edge(101, 252).
edge(102, 142).
edge(102, 284).
edge(103, 259).
edge(104, 280).
edge(105, 140).
edge(108, 217).
edge(110, 271).
edge(113, 121).
edge(114, 250).
edge(114, 255).
edge(120, 229).
edge(120, 273).
edge(127, 145).
edge(127, 286).
edge(129, 300).
edge(130, 292).
edge(131, 151).
edge(132, 171).
edge(133, 251).
edge(135, 300).
edge(136, 160).
edge(138, 151).
edge(138, 157).
edge(140, 170).
edge(140, 177).
edge(140, 258).
edge(141, 148).
edge(141, 276).
edge(142, 202).
edge(144, 179).
edge(144, 183).
edge(146, 199).
edge(147, 160).
edge(148, 156).
edge(149, 270).
edge(150, 253).
edge(151, 245).
edge(151, 275).
edge(155, 247).
edge(156, 262).
edge(157, 185).
edge(158, 270).
edge(159, 177).
edge(161, 213).
edge(161, 231).
edge(161, 279).
edge(163, 261).
edge(167, 272).
edge(171, 234).
edge(172, 180).
edge(173, 179).
edge(173, 210).
edge(174, 277).
edge(176, 240).
edge(177, 209).
edge(177, 265).
edge(178, 187).
edge(178, 258).
edge(179, 201).
edge(182, 225).
edge(183, 198).
edge(189, 248).
edge(191, 219).
edge(192, 196).
edge(194, 214).
edge(199, 285).
edge(200, 237).
edge(202, 212).
edge(202, 229).
edge(202, 264).
edge(202, 273).
edge(204, 224).
edge(204, 236).
edge(204, 283).
edge(206, 207).
edge(206, 231).
edge(206, 298).
edge(207, 216).
edge(207, 286).
edge(210, 216).
edge(210, 222).
edge(210, 269).
edge(218, 241).
edge(220, 288).
edge(220, 291).
edge(222, 227).
edge(223, 260).
edge(227, 243).
edge(229, 296).
edge(236, 293).
edge(239, 257).
edge(240, 290).
edge(240, 294).
edge(262, 263).
edge(264, 274).
edge(266, 277).
edge(274, 294).
edge(283, 297).
