edge(1, 41).
edge(2, 41).
edge(3, 41).
edge(4, 41).
edge(5, 41).
edge(6, 41).
edge(7, 41).
edge(8, 41).
edge(9, 41).
edge(10, 41).
edge(11, 41).
edge(12, 41).
edge(13, 41).
edge(14, 41).
edge(15, 41).
edge(16, 41).
edge(17, 41).
edge(18, 41).
edge(19, 41).
edge(20, 41).
edge(21, 41).
edge(22, 41).
edge(23, 41).
edge(24, 41).
edge(25, 41).
edge(26, 41).
edge(27, 41).
edge(28, 41).
edge(29, 41).
edge(30, 41).
edge(31, 41).
edge(32, 41).
edge(33, 41).
edge(34, 41).
edge(35, 41).
edge(36, 41).
edge(37, 41).
edge(38, 41).
edge(39, 41).
edge(40, 41).
edge(41, 42).
edge(41, 43).
edge(41, 44).
edge(41, 45).
edge(41, 46).
edge(41, 47).
edge(41, 48).
edge(41, 49).
edge(41, 50).
edge(41, 51).
