edge(1, 2).
edge(2, 3).
edge(3, 4).
edge(4, 5).
edge(5, 6).
edge(6, 7).
edge(7, 8).
edge(8, 9).
edge(9, 10).
edge(10, 11).
edge(11, 12).
edge(12, 13).
edge(13, 14).
edge(14, 15).
edge(15, 16).
edge(16, 17).
edge(17, 18).
edge(18, 19).
edge(19, 20).
edge(20, 21).
edge(22, 23).
edge(23, 24).
edge(24, 25).
edge(25, 26).
edge(26, 27).
edge(27, 28).
edge(28, 29).
edge(29, 30).
edge(30, 31).
edge(31, 32).
edge(32, 33).
edge(33, 34).
edge(34, 35).
edge(35, 36).
edge(36, 37).
edge(37, 38).
edge(38, 39).
edge(39, 40).
edge(40, 41).
edge(41, 42).
edge(43, 44).
edge(44, 45).
edge(45, 46).
edge(46, 47).
edge(47, 48).
edge(48, 49).
edge(49, 50).
edge(50, 51).
edge(51, 52).
edge(52, 53).
edge(53, 54).
edge(54, 55).
edge(55, 56).
edge(56, 57).
edge(57, 58).
edge(58, 59).
edge(59, 60).
edge(60, 61).
edge(61, 62).
edge(62, 63).
edge(64, 65).
edge(65, 66).
edge(66, 67).
edge(67, 68).
edge(68, 69).
edge(69, 70).
edge(70, 71).
edge(71, 72).
edge(72, 73).
edge(73, 74).
edge(74, 75).
edge(75, 76).
edge(76, 77).
edge(77, 78).
edge(78, 79).
edge(79, 80).
edge(80, 81).
edge(81, 82).
edge(82, 83).
edge(83, 84).
edge(85, 86).
edge(86, 87).
edge(87, 88).
edge(88, 89).
edge(89, 90).
edge(90, 91).
edge(91, 92).
edge(92, 93).
edge(93, 94).
edge(94, 95).
edge(95, 96).
edge(96, 97).
edge(97, 98).
edge(98, 99).
edge(99, 100).
edge(100, 101).
edge(101, 102).
edge(102, 103).
edge(103, 104).
edge(104, 105).
edge(106, 107).
edge(107, 108).
edge(108, 109).
edge(109, 110).
edge(110, 111).
edge(111, 112).
edge(112, 113).
edge(113, 114).
edge(114, 115).
edge(115, 116).
edge(116, 117).
edge(117, 118).
edge(118, 119).
edge(119, 120).
edge(120, 121).
edge(121, 122).
edge(122, 123).
edge(123, 124).
edge(124, 125).
edge(125, 126).
edge(127, 128).
edge(128, 129).
edge(129, 130).
edge(130, 131).
edge(131, 132).
edge(132, 133).
edge(133, 134).
edge(134, 135).
edge(135, 136).
edge(136, 137).
edge(137, 138).
edge(138, 139).
edge(139, 140).
edge(140, 141).
edge(141, 142).
edge(142, 143).
edge(143, 144).
edge(144, 145).
edge(145, 146).
edge(146, 147).
edge(148, 149).
edge(149, 150).
edge(150, 151).
edge(151, 152).
edge(152, 153).
edge(153, 154).
edge(154, 155).
edge(155, 156).
edge(156, 157).
edge(157, 158).
edge(158, 159).
edge(159, 160).
edge(160, 161).
edge(161, 162).
edge(162, 163).
edge(163, 164).
edge(164, 165).
edge(165, 166).
edge(166, 167).
edge(167, 168).
edge(169, 170).
edge(170, 171).
edge(171, 172).
edge(172, 173).
edge(173, 174).
edge(174, 175).
edge(175, 176).
edge(176, 177).
edge(177, 178).
edge(178, 179).
edge(179, 180).
edge(180, 181).
edge(181, 182).
edge(182, 183).
edge(183, 184).
edge(184, 185).
edge(185, 186).
edge(186, 187).
edge(187, 188).
edge(188, 189).
edge(190, 191).
edge(191, 192).
edge(192, 193).
edge(193, 194).
edge(194, 195).
edge(195, 196).
edge(196, 197).
edge(197, 198).
edge(198, 199).
edge(199, 200).
edge(200, 201).
edge(201, 202).
edge(202, 203).
edge(203, 204).
edge(204, 205).
edge(205, 206).
edge(206, 207).
edge(207, 208).
edge(208, 209).
edge(209, 210).
edge(211, 212).
edge(212, 213).
edge(213, 214).
edge(214, 215).
edge(215, 216).
edge(216, 217).
edge(217, 218).
edge(218, 219).
edge(219, 220).
edge(220, 221).
edge(221, 222).
edge(222, 223).
edge(223, 224).
edge(224, 225).
edge(225, 226).
edge(226, 227).
edge(227, 228).
edge(228, 229).
edge(229, 230).
edge(230, 231).
edge(232, 233).
edge(233, 234).
edge(234, 235).
edge(235, 236).
edge(236, 237).
edge(237, 238).
edge(238, 239).
edge(239, 240).
edge(240, 241).
edge(241, 242).
edge(242, 243).
edge(243, 244).
edge(244, 245).
edge(245, 246).
edge(246, 247).
edge(247, 248).
edge(248, 249).
edge(249, 250).
edge(250, 251).
edge(251, 252).
edge(253, 254).
edge(254, 255).
edge(255, 256).
edge(256, 257).
edge(257, 258).
edge(258, 259).
edge(259, 260).
edge(260, 261).
edge(261, 262).
edge(262, 263).
edge(263, 264).
edge(264, 265).
edge(265, 266).
edge(266, 267).
edge(267, 268).
edge(268, 269).
edge(269, 270).
edge(270, 271).
edge(271, 272).
edge(272, 273).
edge(274, 275).
edge(275, 276).
edge(276, 277).
edge(277, 278).
edge(278, 279).
edge(279, 280).
edge(280, 281).
edge(281, 282).
edge(282, 283).
edge(283, 284).
edge(284, 285).
edge(285, 286).
edge(286, 287).
edge(287, 288).
edge(288, 289).
edge(289, 290).
edge(290, 291).
edge(291, 292).
edge(292, 293).
edge(293, 294).
edge(295, 296).
edge(296, 297).
edge(297, 298).
edge(298, 299).
edge(299, 300).
edge(300, 301).
edge(301, 302).
edge(302, 303).
edge(303, 304).
edge(304, 305).
edge(305, 306).
edge(306, 307).
edge(307, 308).
edge(308, 309).
edge(309, 310).
edge(310, 311).
edge(311, 312).
edge(312, 313).
edge(313, 314).
edge(314, 315).
edge(316, 317).
edge(317, 318).
edge(318, 319).
edge(319, 320).
edge(320, 321).
edge(321, 322).
edge(322, 323).
edge(323, 324).
edge(324, 325).
edge(325, 326).
edge(326, 327).
edge(327, 328).
edge(328, 329).
edge(329, 330).
edge(330, 331).
edge(331, 332).
edge(332, 333).
edge(333, 334).
edge(334, 335).
edge(335, 336).
edge(337, 338).
edge(338, 339).
edge(339, 340).
edge(340, 341).
edge(341, 342).
edge(342, 343).
edge(343, 344).
edge(344, 345).
edge(345, 346).
edge(346, 347).
edge(347, 348).
edge(348, 349).
edge(349, 350).
edge(350, 351).
edge(351, 352).
edge(352, 353).
edge(353, 354).
edge(354, 355).
edge(355, 356).
edge(356, 357).
edge(358, 359).
edge(359, 360).
edge(360, 361).
edge(361, 362).
edge(362, 363).
edge(363, 364).
edge(364, 365).
edge(365, 366).
edge(366, 367).
edge(367, 368).
edge(368, 369).
edge(369, 370).
edge(370, 371).
edge(371, 372).
edge(372, 373).
edge(373, 374).
edge(374, 375).
edge(375, 376).
edge(376, 377).
edge(377, 378).
edge(379, 380).
edge(380, 381).
edge(381, 382).
edge(382, 383).
edge(383, 384).
edge(384, 385).
edge(385, 386).
edge(386, 387).
edge(387, 388).
edge(388, 389).
edge(389, 390).
edge(390, 391).
edge(391, 392).
edge(392, 393).
edge(393, 394).
edge(394, 395).
edge(395, 396).
edge(396, 397).
edge(397, 398).
edge(398, 399).
edge(400, 401).
edge(401, 402).
edge(402, 403).
edge(403, 404).
edge(404, 405).
edge(405, 406).
edge(406, 407).
edge(407, 408).
edge(408, 409).
edge(409, 410).
edge(410, 411).
edge(411, 412).
edge(412, 413).
edge(413, 414).
edge(414, 415).
edge(415, 416).
edge(416, 417).
edge(417, 418).
edge(418, 419).
edge(419, 420).
edge(421, 422).
edge(422, 423).
edge(423, 424).
edge(424, 425).
edge(425, 426).
edge(426, 427).
edge(427, 428).
edge(428, 429).
edge(429, 430).
edge(430, 431).
edge(431, 432).
edge(432, 433).
edge(433, 434).
edge(434, 435).
edge(435, 436).
edge(436, 437).
edge(437, 438).
edge(438, 439).
edge(439, 440).
edge(440, 441).
edge(1, 22).
edge(2, 23).
edge(3, 24).
edge(4, 25).
edge(5, 26).
edge(6, 27).
edge(7, 28).
edge(8, 29).
edge(9, 30).
edge(10, 31).
edge(11, 32).
edge(12, 33).
edge(13, 34).
edge(14, 35).
edge(15, 36).
edge(16, 37).
edge(17, 38).
edge(18, 39).
edge(19, 40).
edge(20, 41).
edge(21, 42).
edge(22, 43).
edge(23, 44).
edge(24, 45).
edge(25, 46).
edge(26, 47).
edge(27, 48).
edge(28, 49).
edge(29, 50).
edge(30, 51).
edge(31, 52).
edge(32, 53).
edge(33, 54).
edge(34, 55).
edge(35, 56).
edge(36, 57).
edge(37, 58).
edge(38, 59).
edge(39, 60).
edge(40, 61).
edge(41, 62).
edge(42, 63).
edge(43, 64).
edge(44, 65).
edge(45, 66).
edge(46, 67).
edge(47, 68).
edge(48, 69).
edge(49, 70).
edge(50, 71).
edge(51, 72).
edge(52, 73).
edge(53, 74).
edge(54, 75).
edge(55, 76).
edge(56, 77).
edge(57, 78).
edge(58, 79).
edge(59, 80).
edge(60, 81).
edge(61, 82).
edge(62, 83).
edge(63, 84).
edge(64, 85).
edge(65, 86).
edge(66, 87).
edge(67, 88).
edge(68, 89).
edge(69, 90).
edge(70, 91).
edge(71, 92).
edge(72, 93).
edge(73, 94).
edge(74, 95).
edge(75, 96).
edge(76, 97).
edge(77, 98).
edge(78, 99).
edge(79, 100).
edge(80, 101).
edge(81, 102).
edge(82, 103).
edge(83, 104).
edge(84, 105).
edge(85, 106).
edge(86, 107).
edge(87, 108).
edge(88, 109).
edge(89, 110).
edge(90, 111).
edge(91, 112).
edge(92, 113).
edge(93, 114).
edge(94, 115).
edge(95, 116).
edge(96, 117).
edge(97, 118).
edge(98, 119).
edge(99, 120).
edge(100, 121).
edge(101, 122).
edge(102, 123).
edge(103, 124).
edge(104, 125).
edge(105, 126).
edge(106, 127).
edge(107, 128).
edge(108, 129).
edge(109, 130).
edge(110, 131).
edge(111, 132).
edge(112, 133).
edge(113, 134).
edge(114, 135).
edge(115, 136).
edge(116, 137).
edge(117, 138).
edge(118, 139).
edge(119, 140).
edge(120, 141).
edge(121, 142).
edge(122, 143).
edge(123, 144).
edge(124, 145).
edge(125, 146).
edge(126, 147).
edge(127, 148).
edge(128, 149).
edge(129, 150).
edge(130, 151).
edge(131, 152).
edge(132, 153).
edge(133, 154).
edge(134, 155).
edge(135, 156).
edge(136, 157).
edge(137, 158).
edge(138, 159).
edge(139, 160).
edge(140, 161).
edge(141, 162).
edge(142, 163).
edge(143, 164).
edge(144, 165).
edge(145, 166).
edge(146, 167).
edge(147, 168).
edge(148, 169).
edge(149, 170).
edge(150, 171).
edge(151, 172).
edge(152, 173).
edge(153, 174).
edge(154, 175).
edge(155, 176).
edge(156, 177).
edge(157, 178).
edge(158, 179).
edge(159, 180).
edge(160, 181).
edge(161, 182).
edge(162, 183).
edge(163, 184).
edge(164, 185).
edge(165, 186).
edge(166, 187).
edge(167, 188).
edge(168, 189).
edge(169, 190).
edge(170, 191).
edge(171, 192).
edge(172, 193).
edge(173, 194).
edge(174, 195).
edge(175, 196).
edge(176, 197).
edge(177, 198).
edge(178, 199).
edge(179, 200).
edge(180, 201).
edge(181, 202).
edge(182, 203).
edge(183, 204).
edge(184, 205).
edge(185, 206).
edge(186, 207).
edge(187, 208).
edge(188, 209).
edge(189, 210).
edge(190, 211).
edge(191, 212).
edge(192, 213).
edge(193, 214).
edge(194, 215).
edge(195, 216).
edge(196, 217).
edge(197, 218).
edge(198, 219).
edge(199, 220).
edge(200, 221).
edge(201, 222).
edge(202, 223).
edge(203, 224).
edge(204, 225).
edge(205, 226).
edge(206, 227).
edge(207, 228).
edge(208, 229).
edge(209, 230).
edge(210, 231).
edge(211, 232).
edge(212, 233).
edge(213, 234).
edge(214, 235).
edge(215, 236).
edge(216, 237).
edge(217, 238).
edge(218, 239).
edge(219, 240).
edge(220, 241).
edge(221, 242).
edge(222, 243).
edge(223, 244).
edge(224, 245).
edge(225, 246).
edge(226, 247).
edge(227, 248).
edge(228, 249).
edge(229, 250).
edge(230, 251).
edge(231, 252).
edge(232, 253).
edge(233, 254).
edge(234, 255).
edge(235, 256).
edge(236, 257).
edge(237, 258).
edge(238, 259).
edge(239, 260).
edge(240, 261).
edge(241, 262).
edge(242, 263).
edge(243, 264).
edge(244, 265).
edge(245, 266).
edge(246, 267).
edge(247, 268).
edge(248, 269).
edge(249, 270).
edge(250, 271).
edge(251, 272).
edge(252, 273).
edge(253, 274).
edge(254, 275).
edge(255, 276).
edge(256, 277).
edge(257, 278).
edge(258, 279).
edge(259, 280).
edge(260, 281).
edge(261, 282).
edge(262, 283).
edge(263, 284).
edge(264, 285).
edge(265, 286).
edge(266, 287).
edge(267, 288).
edge(268, 289).
edge(269, 290).
edge(270, 291).
edge(271, 292).
edge(272, 293).
edge(273, 294).
edge(274, 295).
edge(275, 296).
edge(276, 297).
edge(277, 298).
edge(278, 299).
edge(279, 300).
edge(280, 301).
edge(281, 302).
edge(282, 303).
edge(283, 304).
edge(284, 305).
edge(285, 306).
edge(286, 307).
edge(287, 308).
edge(288, 309).
edge(289, 310).
edge(290, 311).
edge(291, 312).
edge(292, 313).
edge(293, 314).
edge(294, 315).
edge(295, 316).
edge(296, 317).
edge(297, 318).
edge(298, 319).
edge(299, 320).
edge(300, 321).
edge(301, 322).
edge(302, 323).
edge(303, 324).
edge(304, 325).
edge(305, 326).
edge(306, 327).
edge(307, 328).
edge(308, 329).
edge(309, 330).
edge(310, 331).
edge(311, 332).
edge(312, 333).
edge(313, 334).
edge(314, 335).
edge(315, 336).
edge(316, 337).
edge(317, 338).
edge(318, 339).
edge(319, 340).
edge(320, 341).
edge(321, 342).
edge(322, 343).
edge(323, 344).
edge(324, 345).
edge(325, 346).
edge(326, 347).
edge(327, 348).
edge(328, 349).
edge(329, 350).
edge(330, 351).
edge(331, 352).
edge(332, 353).
edge(333, 354).
edge(334, 355).
edge(335, 356).
edge(336, 357).
edge(337, 358).
edge(338, 359).
edge(339, 360).
edge(340, 361).
edge(341, 362).
edge(342, 363).
edge(343, 364).
edge(344, 365).
edge(345, 366).
edge(346, 367).
edge(347, 368).
edge(348, 369).
edge(349, 370).
edge(350, 371).
edge(351, 372).
edge(352, 373).
edge(353, 374).
edge(354, 375).
edge(355, 376).
edge(356, 377).
edge(357, 378).
edge(358, 379).
edge(359, 380).
edge(360, 381).
edge(361, 382).
edge(362, 383).
edge(363, 384).
edge(364, 385).
edge(365, 386).
edge(366, 387).
edge(367, 388).
edge(368, 389).
edge(369, 390).
edge(370, 391).
edge(371, 392).
edge(372, 393).
edge(373, 394).
edge(374, 395).
edge(375, 396).
edge(376, 397).
edge(377, 398).
edge(378, 399).
edge(379, 400).
edge(380, 401).
edge(381, 402).
edge(382, 403).
edge(383, 404).
edge(384, 405).
edge(385, 406).
edge(386, 407).
edge(387, 408).
edge(388, 409).
edge(389, 410).
edge(390, 411).
edge(391, 412).
edge(392, 413).
edge(393, 414).
edge(394, 415).
edge(395, 416).
edge(396, 417).
edge(397, 418).
edge(398, 419).
edge(399, 420).
edge(400, 421).
edge(401, 422).
edge(402, 423).
edge(403, 424).
edge(404, 425).
edge(405, 426).
edge(406, 427).
edge(407, 428).
edge(408, 429).
edge(409, 430).
edge(410, 431).
edge(411, 432).
edge(412, 433).
edge(413, 434).
edge(414, 435).
edge(415, 436).
edge(416, 437).
edge(417, 438).
edge(418, 439).
edge(419, 440).
edge(420, 441).
