edge(1, 2).
edge(2, 3).
edge(3, 4).
edge(4, 5).
edge(5, 6).
edge(7, 8).
edge(8, 9).
edge(9, 10).
edge(10, 11).
edge(11, 12).
edge(13, 14).
edge(14, 15).
edge(15, 16).
edge(16, 17).
edge(17, 18).
edge(19, 20).
edge(20, 21).
edge(21, 22).
edge(22, 23).
edge(23, 24).
edge(25, 26).
edge(26, 27).
edge(27, 28).
edge(28, 29).
edge(29, 30).
edge(31, 32).
edge(32, 33).
edge(33, 34).
edge(34, 35).
edge(35, 36).
edge(1, 7).
edge(2, 8).
edge(3, 9).
edge(4, 10).
edge(5, 11).
edge(6, 12).
edge(7, 13).
edge(8, 14).
edge(9, 15).
edge(10, 16).
edge(11, 17).
edge(12, 18).
edge(13, 19).
edge(14, 20).
edge(15, 21).
edge(16, 22).
edge(17, 23).
edge(18, 24).
edge(19, 25).
edge(20, 26).
edge(21, 27).
edge(22, 28).
edge(23, 29).
edge(24, 30).
edge(25, 31).
edge(26, 32).
edge(27, 33).
edge(28, 34).
edge(29, 35).
edge(30, 36).
