edge(1, 42).
edge(1, 43).
edge(1, 44).
edge(1, 45).
edge(1, 46).
edge(1, 47).
edge(1, 48).
edge(1, 49).
edge(1, 50).
edge(1, 51).
edge(2, 43).
edge(2, 44).
edge(2, 45).
edge(2, 46).
edge(2, 47).
edge(2, 48).
edge(2, 49).
edge(2, 50).
edge(2, 51).
edge(2, 52).
edge(3, 44).
edge(3, 45).
edge(3, 46).
edge(3, 47).
edge(3, 48).
edge(3, 49).
edge(3, 50).
edge(3, 51).
edge(3, 52).
edge(3, 53).
edge(4, 45).
edge(4, 46).
edge(4, 47).
edge(4, 48).
edge(4, 49).
edge(4, 50).
edge(4, 51).
edge(4, 52).
edge(4, 53).
edge(4, 54).
edge(5, 46).
edge(5, 47).
edge(5, 48).
edge(5, 49).
edge(5, 50).
edge(5, 51).
edge(5, 52).
edge(5, 53).
edge(5, 54).
edge(5, 55).
edge(6, 47).
edge(6, 48).
edge(6, 49).
edge(6, 50).
edge(6, 51).
edge(6, 52).
edge(6, 53).
edge(6, 54).
edge(6, 55).
edge(6, 56).
edge(7, 48).
edge(7, 49).
edge(7, 50).
edge(7, 51).
edge(7, 52).
edge(7, 53).
edge(7, 54).
edge(7, 55).
edge(7, 56).
edge(7, 57).
edge(8, 49).
edge(8, 50).
edge(8, 51).
edge(8, 52).
edge(8, 53).
edge(8, 54).
edge(8, 55).
edge(8, 56).
edge(8, 57).
edge(8, 58).
edge(9, 50).
edge(9, 51).
edge(9, 52).
edge(9, 53).
edge(9, 54).
edge(9, 55).
edge(9, 56).
edge(9, 57).
edge(9, 58).
edge(9, 59).
edge(10, 51).
edge(10, 52).
edge(10, 53).
edge(10, 54).
edge(10, 55).
edge(10, 56).
edge(10, 57).
edge(10, 58).
edge(10, 59).
edge(10, 60).
edge(11, 52).
edge(11, 53).
edge(11, 54).
edge(11, 55).
edge(11, 56).
edge(11, 57).
edge(11, 58).
edge(11, 59).
edge(11, 60).
edge(11, 61).
edge(12, 53).
edge(12, 54).
edge(12, 55).
edge(12, 56).
edge(12, 57).
edge(12, 58).
edge(12, 59).
edge(12, 60).
edge(12, 61).
edge(12, 62).
edge(13, 54).
edge(13, 55).
edge(13, 56).
edge(13, 57).
edge(13, 58).
edge(13, 59).
edge(13, 60).
edge(13, 61).
edge(13, 62).
edge(13, 63).
edge(14, 55).
edge(14, 56).
edge(14, 57).
edge(14, 58).
edge(14, 59).
edge(14, 60).
edge(14, 61).
edge(14, 62).
edge(14, 63).
edge(14, 64).
edge(15, 56).
edge(15, 57).
edge(15, 58).
edge(15, 59).
edge(15, 60).
edge(15, 61).
edge(15, 62).
edge(15, 63).
edge(15, 64).
edge(15, 65).
edge(16, 57).
edge(16, 58).
edge(16, 59).
edge(16, 60).
edge(16, 61).
edge(16, 62).
edge(16, 63).
edge(16, 64).
edge(16, 65).
edge(16, 66).
edge(17, 58).
edge(17, 59).
edge(17, 60).
edge(17, 61).
edge(17, 62).
edge(17, 63).
edge(17, 64).
edge(17, 65).
edge(17, 66).
edge(17, 67).
edge(18, 59).
edge(18, 60).
edge(18, 61).
edge(18, 62).
edge(18, 63).
edge(18, 64).
edge(18, 65).
edge(18, 66).
edge(18, 67).
edge(18, 68).
edge(19, 60).
edge(19, 61).
edge(19, 62).
edge(19, 63).
edge(19, 64).
edge(19, 65).
edge(19, 66).
edge(19, 67).
edge(19, 68).
edge(19, 69).
edge(20, 61).
edge(20, 62).
edge(20, 63).
edge(20, 64).
edge(20, 65).
edge(20, 66).
edge(20, 67).
edge(20, 68).
edge(20, 69).
edge(20, 70).
edge(21, 62).
edge(21, 63).
edge(21, 64).
edge(21, 65).
edge(21, 66).
edge(21, 67).
edge(21, 68).
edge(21, 69).
edge(21, 70).
edge(21, 71).
edge(22, 63).
edge(22, 64).
edge(22, 65).
edge(22, 66).
edge(22, 67).
edge(22, 68).
edge(22, 69).
edge(22, 70).
edge(22, 71).
edge(22, 72).
edge(23, 64).
edge(23, 65).
edge(23, 66).
edge(23, 67).
edge(23, 68).
edge(23, 69).
edge(23, 70).
edge(23, 71).
edge(23, 72).
edge(23, 73).
edge(24, 65).
edge(24, 66).
edge(24, 67).
edge(24, 68).
edge(24, 69).
edge(24, 70).
edge(24, 71).
edge(24, 72).
edge(24, 73).
edge(24, 74).
edge(25, 66).
edge(25, 67).
edge(25, 68).
edge(25, 69).
edge(25, 70).
edge(25, 71).
edge(25, 72).
edge(25, 73).
edge(25, 74).
edge(25, 75).
edge(26, 67).
edge(26, 68).
edge(26, 69).
edge(26, 70).
edge(26, 71).
edge(26, 72).
edge(26, 73).
edge(26, 74).
edge(26, 75).
edge(26, 76).
edge(27, 68).
edge(27, 69).
edge(27, 70).
edge(27, 71).
edge(27, 72).
edge(27, 73).
edge(27, 74).
edge(27, 75).
edge(27, 76).
edge(27, 77).
edge(28, 69).
edge(28, 70).
edge(28, 71).
edge(28, 72).
edge(28, 73).
edge(28, 74).
edge(28, 75).
edge(28, 76).
edge(28, 77).
edge(28, 78).
edge(29, 70).
edge(29, 71).
edge(29, 72).
edge(29, 73).
edge(29, 74).
edge(29, 75).
edge(29, 76).
edge(29, 77).
edge(29, 78).
edge(29, 79).
edge(30, 71).
edge(30, 72).
edge(30, 73).
edge(30, 74).
edge(30, 75).
edge(30, 76).
edge(30, 77).
edge(30, 78).
edge(30, 79).
edge(30, 80).
edge(31, 72).
edge(31, 73).
edge(31, 74).
edge(31, 75).
edge(31, 76).
edge(31, 77).
edge(31, 78).
edge(31, 79).
edge(31, 80).
edge(31, 41).
edge(32, 73).
edge(32, 74).
edge(32, 75).
edge(32, 76).
edge(32, 77).
edge(32, 78).
edge(32, 79).
edge(32, 80).
edge(32, 41).
edge(32, 42).
edge(33, 74).
edge(33, 75).
edge(33, 76).
edge(33, 77).
edge(33, 78).
edge(33, 79).
edge(33, 80).
edge(33, 41).
edge(33, 42).
edge(33, 43).
edge(34, 75).
edge(34, 76).
edge(34, 77).
edge(34, 78).
edge(34, 79).
edge(34, 80).
edge(34, 41).
edge(34, 42).
edge(34, 43).
edge(34, 44).
edge(35, 76).
edge(35, 77).
edge(35, 78).
edge(35, 79).
edge(35, 80).
edge(35, 41).
edge(35, 42).
edge(35, 43).
edge(35, 44).
edge(35, 45).
edge(36, 77).
edge(36, 78).
edge(36, 79).
edge(36, 80).
edge(36, 41).
edge(36, 42).
edge(36, 43).
edge(36, 44).
edge(36, 45).
edge(36, 46).
edge(37, 78).
edge(37, 79).
edge(37, 80).
edge(37, 41).
edge(37, 42).
edge(37, 43).
edge(37, 44).
edge(37, 45).
edge(37, 46).
edge(37, 47).
edge(38, 79).
edge(38, 80).
edge(38, 41).
edge(38, 42).
edge(38, 43).
edge(38, 44).
edge(38, 45).
edge(38, 46).
edge(38, 47).
edge(38, 48).
edge(39, 80).
edge(39, 41).
edge(39, 42).
edge(39, 43).
edge(39, 44).
edge(39, 45).
edge(39, 46).
edge(39, 47).
edge(39, 48).
edge(39, 49).
edge(40, 41).
edge(40, 42).
edge(40, 43).
edge(40, 44).
edge(40, 45).
edge(40, 46).
edge(40, 47).
edge(40, 48).
edge(40, 49).
edge(40, 50).
