edge(1, 452).
edge(1, 453).
edge(1, 454).
edge(1, 455).
edge(1, 456).
edge(1, 457).
edge(1, 458).
edge(1, 459).
edge(1, 460).
edge(1, 461).
edge(2, 453).
edge(2, 454).
edge(2, 455).
edge(2, 456).
edge(2, 457).
edge(2, 458).
edge(2, 459).
edge(2, 460).
edge(2, 461).
edge(2, 462).
edge(3, 454).
edge(3, 455).
edge(3, 456).
edge(3, 457).
edge(3, 458).
edge(3, 459).
edge(3, 460).
edge(3, 461).
edge(3, 462).
edge(3, 463).
edge(4, 455).
edge(4, 456).
edge(4, 457).
edge(4, 458).
edge(4, 459).
edge(4, 460).
edge(4, 461).
edge(4, 462).
edge(4, 463).
edge(4, 464).
edge(5, 456).
edge(5, 457).
edge(5, 458).
edge(5, 459).
edge(5, 460).
edge(5, 461).
edge(5, 462).
edge(5, 463).
edge(5, 464).
edge(5, 465).
edge(6, 457).
edge(6, 458).
edge(6, 459).
edge(6, 460).
edge(6, 461).
edge(6, 462).
edge(6, 463).
edge(6, 464).
edge(6, 465).
edge(6, 466).
edge(7, 458).
edge(7, 459).
edge(7, 460).
edge(7, 461).
edge(7, 462).
edge(7, 463).
edge(7, 464).
edge(7, 465).
edge(7, 466).
edge(7, 467).
edge(8, 459).
edge(8, 460).
edge(8, 461).
edge(8, 462).
edge(8, 463).
edge(8, 464).
edge(8, 465).
edge(8, 466).
edge(8, 467).
edge(8, 468).
edge(9, 460).
edge(9, 461).
edge(9, 462).
edge(9, 463).
edge(9, 464).
edge(9, 465).
edge(9, 466).
edge(9, 467).
edge(9, 468).
edge(9, 469).
edge(10, 461).
edge(10, 462).
edge(10, 463).
edge(10, 464).
edge(10, 465).
edge(10, 466).
edge(10, 467).
edge(10, 468).
edge(10, 469).
edge(10, 470).
edge(11, 462).
edge(11, 463).
edge(11, 464).
edge(11, 465).
edge(11, 466).
edge(11, 467).
edge(11, 468).
edge(11, 469).
edge(11, 470).
edge(11, 471).
edge(12, 463).
edge(12, 464).
edge(12, 465).
edge(12, 466).
edge(12, 467).
edge(12, 468).
edge(12, 469).
edge(12, 470).
edge(12, 471).
edge(12, 472).
edge(13, 464).
edge(13, 465).
edge(13, 466).
edge(13, 467).
edge(13, 468).
edge(13, 469).
edge(13, 470).
edge(13, 471).
edge(13, 472).
edge(13, 473).
edge(14, 465).
edge(14, 466).
edge(14, 467).
edge(14, 468).
edge(14, 469).
edge(14, 470).
edge(14, 471).
edge(14, 472).
edge(14, 473).
edge(14, 474).
edge(15, 466).
edge(15, 467).
edge(15, 468).
edge(15, 469).
edge(15, 470).
edge(15, 471).
edge(15, 472).
edge(15, 473).
edge(15, 474).
edge(15, 475).
edge(16, 467).
edge(16, 468).
edge(16, 469).
edge(16, 470).
edge(16, 471).
edge(16, 472).
edge(16, 473).
edge(16, 474).
edge(16, 475).
edge(16, 476).
edge(17, 468).
edge(17, 469).
edge(17, 470).
edge(17, 471).
edge(17, 472).
edge(17, 473).
edge(17, 474).
edge(17, 475).
edge(17, 476).
edge(17, 477).
edge(18, 469).
edge(18, 470).
edge(18, 471).
edge(18, 472).
edge(18, 473).
edge(18, 474).
edge(18, 475).
edge(18, 476).
edge(18, 477).
edge(18, 478).
edge(19, 470).
edge(19, 471).
edge(19, 472).
edge(19, 473).
edge(19, 474).
edge(19, 475).
edge(19, 476).
edge(19, 477).
edge(19, 478).
edge(19, 479).
edge(20, 471).
edge(20, 472).
edge(20, 473).
edge(20, 474).
edge(20, 475).
edge(20, 476).
edge(20, 477).
edge(20, 478).
edge(20, 479).
edge(20, 480).
edge(21, 472).
edge(21, 473).
edge(21, 474).
edge(21, 475).
edge(21, 476).
edge(21, 477).
edge(21, 478).
edge(21, 479).
edge(21, 480).
edge(21, 481).
edge(22, 473).
edge(22, 474).
edge(22, 475).
edge(22, 476).
edge(22, 477).
edge(22, 478).
edge(22, 479).
edge(22, 480).
edge(22, 481).
edge(22, 482).
edge(23, 474).
edge(23, 475).
edge(23, 476).
edge(23, 477).
edge(23, 478).
edge(23, 479).
edge(23, 480).
edge(23, 481).
edge(23, 482).
edge(23, 483).
edge(24, 475).
edge(24, 476).
edge(24, 477).
edge(24, 478).
edge(24, 479).
edge(24, 480).
edge(24, 481).
edge(24, 482).
edge(24, 483).
edge(24, 484).
edge(25, 476).
edge(25, 477).
edge(25, 478).
edge(25, 479).
edge(25, 480).
edge(25, 481).
edge(25, 482).
edge(25, 483).
edge(25, 484).
edge(25, 485).
edge(26, 477).
edge(26, 478).
edge(26, 479).
edge(26, 480).
edge(26, 481).
edge(26, 482).
edge(26, 483).
edge(26, 484).
edge(26, 485).
edge(26, 486).
edge(27, 478).
edge(27, 479).
edge(27, 480).
edge(27, 481).
edge(27, 482).
edge(27, 483).
edge(27, 484).
edge(27, 485).
edge(27, 486).
edge(27, 487).
edge(28, 479).
edge(28, 480).
edge(28, 481).
edge(28, 482).
edge(28, 483).
edge(28, 484).
edge(28, 485).
edge(28, 486).
edge(28, 487).
edge(28, 488).
edge(29, 480).
edge(29, 481).
edge(29, 482).
edge(29, 483).
edge(29, 484).
edge(29, 485).
edge(29, 486).
edge(29, 487).
edge(29, 488).
edge(29, 489).
edge(30, 481).
edge(30, 482).
edge(30, 483).
edge(30, 484).
edge(30, 485).
edge(30, 486).
edge(30, 487).
edge(30, 488).
edge(30, 489).
edge(30, 490).
edge(31, 482).
edge(31, 483).
edge(31, 484).
edge(31, 485).
edge(31, 486).
edge(31, 487).
edge(31, 488).
edge(31, 489).
edge(31, 490).
edge(31, 491).
edge(32, 483).
edge(32, 484).
edge(32, 485).
edge(32, 486).
edge(32, 487).
edge(32, 488).
edge(32, 489).
edge(32, 490).
edge(32, 491).
edge(32, 492).
edge(33, 484).
edge(33, 485).
edge(33, 486).
edge(33, 487).
edge(33, 488).
edge(33, 489).
edge(33, 490).
edge(33, 491).
edge(33, 492).
edge(33, 493).
edge(34, 485).
edge(34, 486).
edge(34, 487).
edge(34, 488).
edge(34, 489).
edge(34, 490).
edge(34, 491).
edge(34, 492).
edge(34, 493).
edge(34, 494).
edge(35, 486).
edge(35, 487).
edge(35, 488).
edge(35, 489).
edge(35, 490).
edge(35, 491).
edge(35, 492).
edge(35, 493).
edge(35, 494).
edge(35, 495).
edge(36, 487).
edge(36, 488).
edge(36, 489).
edge(36, 490).
edge(36, 491).
edge(36, 492).
edge(36, 493).
edge(36, 494).
edge(36, 495).
edge(36, 496).
edge(37, 488).
edge(37, 489).
edge(37, 490).
edge(37, 491).
edge(37, 492).
edge(37, 493).
edge(37, 494).
edge(37, 495).
edge(37, 496).
edge(37, 497).
edge(38, 489).
edge(38, 490).
edge(38, 491).
edge(38, 492).
edge(38, 493).
edge(38, 494).
edge(38, 495).
edge(38, 496).
edge(38, 497).
edge(38, 498).
edge(39, 490).
edge(39, 491).
edge(39, 492).
edge(39, 493).
edge(39, 494).
edge(39, 495).
edge(39, 496).
edge(39, 497).
edge(39, 498).
edge(39, 499).
edge(40, 491).
edge(40, 492).
edge(40, 493).
edge(40, 494).
edge(40, 495).
edge(40, 496).
edge(40, 497).
edge(40, 498).
edge(40, 499).
edge(40, 500).
edge(41, 492).
edge(41, 493).
edge(41, 494).
edge(41, 495).
edge(41, 496).
edge(41, 497).
edge(41, 498).
edge(41, 499).
edge(41, 500).
edge(41, 501).
edge(42, 493).
edge(42, 494).
edge(42, 495).
edge(42, 496).
edge(42, 497).
edge(42, 498).
edge(42, 499).
edge(42, 500).
edge(42, 501).
edge(42, 502).
edge(43, 494).
edge(43, 495).
edge(43, 496).
edge(43, 497).
edge(43, 498).
edge(43, 499).
edge(43, 500).
edge(43, 501).
edge(43, 502).
edge(43, 503).
edge(44, 495).
edge(44, 496).
edge(44, 497).
edge(44, 498).
edge(44, 499).
edge(44, 500).
edge(44, 501).
edge(44, 502).
edge(44, 503).
edge(44, 504).
edge(45, 496).
edge(45, 497).
edge(45, 498).
edge(45, 499).
edge(45, 500).
edge(45, 501).
edge(45, 502).
edge(45, 503).
edge(45, 504).
edge(45, 505).
edge(46, 497).
edge(46, 498).
edge(46, 499).
edge(46, 500).
edge(46, 501).
edge(46, 502).
edge(46, 503).
edge(46, 504).
edge(46, 505).
edge(46, 506).
edge(47, 498).
edge(47, 499).
edge(47, 500).
edge(47, 501).
edge(47, 502).
edge(47, 503).
edge(47, 504).
edge(47, 505).
edge(47, 506).
edge(47, 507).
edge(48, 499).
edge(48, 500).
edge(48, 501).
edge(48, 502).
edge(48, 503).
edge(48, 504).
edge(48, 505).
edge(48, 506).
edge(48, 507).
edge(48, 508).
edge(49, 500).
edge(49, 501).
edge(49, 502).
edge(49, 503).
edge(49, 504).
edge(49, 505).
edge(49, 506).
edge(49, 507).
edge(49, 508).
edge(49, 509).
edge(50, 501).
edge(50, 502).
edge(50, 503).
edge(50, 504).
edge(50, 505).
edge(50, 506).
edge(50, 507).
edge(50, 508).
edge(50, 509).
edge(50, 510).
edge(51, 502).
edge(51, 503).
edge(51, 504).
edge(51, 505).
edge(51, 506).
edge(51, 507).
edge(51, 508).
edge(51, 509).
edge(51, 510).
edge(51, 511).
edge(52, 503).
edge(52, 504).
edge(52, 505).
edge(52, 506).
edge(52, 507).
edge(52, 508).
edge(52, 509).
edge(52, 510).
edge(52, 511).
edge(52, 512).
edge(53, 504).
edge(53, 505).
edge(53, 506).
edge(53, 507).
edge(53, 508).
edge(53, 509).
edge(53, 510).
edge(53, 511).
edge(53, 512).
edge(53, 513).
edge(54, 505).
edge(54, 506).
edge(54, 507).
edge(54, 508).
edge(54, 509).
edge(54, 510).
edge(54, 511).
edge(54, 512).
edge(54, 513).
edge(54, 514).
edge(55, 506).
edge(55, 507).
edge(55, 508).
edge(55, 509).
edge(55, 510).
edge(55, 511).
edge(55, 512).
edge(55, 513).
edge(55, 514).
edge(55, 515).
edge(56, 507).
edge(56, 508).
edge(56, 509).
edge(56, 510).
edge(56, 511).
edge(56, 512).
edge(56, 513).
edge(56, 514).
edge(56, 515).
edge(56, 516).
edge(57, 508).
edge(57, 509).
edge(57, 510).
edge(57, 511).
edge(57, 512).
edge(57, 513).
edge(57, 514).
edge(57, 515).
edge(57, 516).
edge(57, 517).
edge(58, 509).
edge(58, 510).
edge(58, 511).
edge(58, 512).
edge(58, 513).
edge(58, 514).
edge(58, 515).
edge(58, 516).
edge(58, 517).
edge(58, 518).
edge(59, 510).
edge(59, 511).
edge(59, 512).
edge(59, 513).
edge(59, 514).
edge(59, 515).
edge(59, 516).
edge(59, 517).
edge(59, 518).
edge(59, 519).
edge(60, 511).
edge(60, 512).
edge(60, 513).
edge(60, 514).
edge(60, 515).
edge(60, 516).
edge(60, 517).
edge(60, 518).
edge(60, 519).
edge(60, 520).
edge(61, 512).
edge(61, 513).
edge(61, 514).
edge(61, 515).
edge(61, 516).
edge(61, 517).
edge(61, 518).
edge(61, 519).
edge(61, 520).
edge(61, 521).
edge(62, 513).
edge(62, 514).
edge(62, 515).
edge(62, 516).
edge(62, 517).
edge(62, 518).
edge(62, 519).
edge(62, 520).
edge(62, 521).
edge(62, 522).
edge(63, 514).
edge(63, 515).
edge(63, 516).
edge(63, 517).
edge(63, 518).
edge(63, 519).
edge(63, 520).
edge(63, 521).
edge(63, 522).
edge(63, 523).
edge(64, 515).
edge(64, 516).
edge(64, 517).
edge(64, 518).
edge(64, 519).
edge(64, 520).
edge(64, 521).
edge(64, 522).
edge(64, 523).
edge(64, 524).
edge(65, 516).
edge(65, 517).
edge(65, 518).
edge(65, 519).
edge(65, 520).
edge(65, 521).
edge(65, 522).
edge(65, 523).
edge(65, 524).
edge(65, 525).
edge(66, 517).
edge(66, 518).
edge(66, 519).
edge(66, 520).
edge(66, 521).
edge(66, 522).
edge(66, 523).
edge(66, 524).
edge(66, 525).
edge(66, 526).
edge(67, 518).
edge(67, 519).
edge(67, 520).
edge(67, 521).
edge(67, 522).
edge(67, 523).
edge(67, 524).
edge(67, 525).
edge(67, 526).
edge(67, 527).
edge(68, 519).
edge(68, 520).
edge(68, 521).
edge(68, 522).
edge(68, 523).
edge(68, 524).
edge(68, 525).
edge(68, 526).
edge(68, 527).
edge(68, 528).
edge(69, 520).
edge(69, 521).
edge(69, 522).
edge(69, 523).
edge(69, 524).
edge(69, 525).
edge(69, 526).
edge(69, 527).
edge(69, 528).
edge(69, 529).
edge(70, 521).
edge(70, 522).
edge(70, 523).
edge(70, 524).
edge(70, 525).
edge(70, 526).
edge(70, 527).
edge(70, 528).
edge(70, 529).
edge(70, 530).
edge(71, 522).
edge(71, 523).
edge(71, 524).
edge(71, 525).
edge(71, 526).
edge(71, 527).
edge(71, 528).
edge(71, 529).
edge(71, 530).
edge(71, 531).
edge(72, 523).
edge(72, 524).
edge(72, 525).
edge(72, 526).
edge(72, 527).
edge(72, 528).
edge(72, 529).
edge(72, 530).
edge(72, 531).
edge(72, 532).
edge(73, 524).
edge(73, 525).
edge(73, 526).
edge(73, 527).
edge(73, 528).
edge(73, 529).
edge(73, 530).
edge(73, 531).
edge(73, 532).
edge(73, 533).
edge(74, 525).
edge(74, 526).
edge(74, 527).
edge(74, 528).
edge(74, 529).
edge(74, 530).
edge(74, 531).
edge(74, 532).
edge(74, 533).
edge(74, 534).
edge(75, 526).
edge(75, 527).
edge(75, 528).
edge(75, 529).
edge(75, 530).
edge(75, 531).
edge(75, 532).
edge(75, 533).
edge(75, 534).
edge(75, 535).
edge(76, 527).
edge(76, 528).
edge(76, 529).
edge(76, 530).
edge(76, 531).
edge(76, 532).
edge(76, 533).
edge(76, 534).
edge(76, 535).
edge(76, 536).
edge(77, 528).
edge(77, 529).
edge(77, 530).
edge(77, 531).
edge(77, 532).
edge(77, 533).
edge(77, 534).
edge(77, 535).
edge(77, 536).
edge(77, 537).
edge(78, 529).
edge(78, 530).
edge(78, 531).
edge(78, 532).
edge(78, 533).
edge(78, 534).
edge(78, 535).
edge(78, 536).
edge(78, 537).
edge(78, 538).
edge(79, 530).
edge(79, 531).
edge(79, 532).
edge(79, 533).
edge(79, 534).
edge(79, 535).
edge(79, 536).
edge(79, 537).
edge(79, 538).
edge(79, 539).
edge(80, 531).
edge(80, 532).
edge(80, 533).
edge(80, 534).
edge(80, 535).
edge(80, 536).
edge(80, 537).
edge(80, 538).
edge(80, 539).
edge(80, 540).
edge(81, 532).
edge(81, 533).
edge(81, 534).
edge(81, 535).
edge(81, 536).
edge(81, 537).
edge(81, 538).
edge(81, 539).
edge(81, 540).
edge(81, 541).
edge(82, 533).
edge(82, 534).
edge(82, 535).
edge(82, 536).
edge(82, 537).
edge(82, 538).
edge(82, 539).
edge(82, 540).
edge(82, 541).
edge(82, 542).
edge(83, 534).
edge(83, 535).
edge(83, 536).
edge(83, 537).
edge(83, 538).
edge(83, 539).
edge(83, 540).
edge(83, 541).
edge(83, 542).
edge(83, 543).
edge(84, 535).
edge(84, 536).
edge(84, 537).
edge(84, 538).
edge(84, 539).
edge(84, 540).
edge(84, 541).
edge(84, 542).
edge(84, 543).
edge(84, 544).
edge(85, 536).
edge(85, 537).
edge(85, 538).
edge(85, 539).
edge(85, 540).
edge(85, 541).
edge(85, 542).
edge(85, 543).
edge(85, 544).
edge(85, 545).
edge(86, 537).
edge(86, 538).
edge(86, 539).
edge(86, 540).
edge(86, 541).
edge(86, 542).
edge(86, 543).
edge(86, 544).
edge(86, 545).
edge(86, 546).
edge(87, 538).
edge(87, 539).
edge(87, 540).
edge(87, 541).
edge(87, 542).
edge(87, 543).
edge(87, 544).
edge(87, 545).
edge(87, 546).
edge(87, 547).
edge(88, 539).
edge(88, 540).
edge(88, 541).
edge(88, 542).
edge(88, 543).
edge(88, 544).
edge(88, 545).
edge(88, 546).
edge(88, 547).
edge(88, 548).
edge(89, 540).
edge(89, 541).
edge(89, 542).
edge(89, 543).
edge(89, 544).
edge(89, 545).
edge(89, 546).
edge(89, 547).
edge(89, 548).
edge(89, 549).
edge(90, 541).
edge(90, 542).
edge(90, 543).
edge(90, 544).
edge(90, 545).
edge(90, 546).
edge(90, 547).
edge(90, 548).
edge(90, 549).
edge(90, 550).
edge(91, 542).
edge(91, 543).
edge(91, 544).
edge(91, 545).
edge(91, 546).
edge(91, 547).
edge(91, 548).
edge(91, 549).
edge(91, 550).
edge(91, 551).
edge(92, 543).
edge(92, 544).
edge(92, 545).
edge(92, 546).
edge(92, 547).
edge(92, 548).
edge(92, 549).
edge(92, 550).
edge(92, 551).
edge(92, 552).
edge(93, 544).
edge(93, 545).
edge(93, 546).
edge(93, 547).
edge(93, 548).
edge(93, 549).
edge(93, 550).
edge(93, 551).
edge(93, 552).
edge(93, 553).
edge(94, 545).
edge(94, 546).
edge(94, 547).
edge(94, 548).
edge(94, 549).
edge(94, 550).
edge(94, 551).
edge(94, 552).
edge(94, 553).
edge(94, 554).
edge(95, 546).
edge(95, 547).
edge(95, 548).
edge(95, 549).
edge(95, 550).
edge(95, 551).
edge(95, 552).
edge(95, 553).
edge(95, 554).
edge(95, 555).
edge(96, 547).
edge(96, 548).
edge(96, 549).
edge(96, 550).
edge(96, 551).
edge(96, 552).
edge(96, 553).
edge(96, 554).
edge(96, 555).
edge(96, 556).
edge(97, 548).
edge(97, 549).
edge(97, 550).
edge(97, 551).
edge(97, 552).
edge(97, 553).
edge(97, 554).
edge(97, 555).
edge(97, 556).
edge(97, 557).
edge(98, 549).
edge(98, 550).
edge(98, 551).
edge(98, 552).
edge(98, 553).
edge(98, 554).
edge(98, 555).
edge(98, 556).
edge(98, 557).
edge(98, 558).
edge(99, 550).
edge(99, 551).
edge(99, 552).
edge(99, 553).
edge(99, 554).
edge(99, 555).
edge(99, 556).
edge(99, 557).
edge(99, 558).
edge(99, 559).
edge(100, 551).
edge(100, 552).
edge(100, 553).
edge(100, 554).
edge(100, 555).
edge(100, 556).
edge(100, 557).
edge(100, 558).
edge(100, 559).
edge(100, 560).
edge(101, 552).
edge(101, 553).
edge(101, 554).
edge(101, 555).
edge(101, 556).
edge(101, 557).
edge(101, 558).
edge(101, 559).
edge(101, 560).
edge(101, 561).
edge(102, 553).
edge(102, 554).
edge(102, 555).
edge(102, 556).
edge(102, 557).
edge(102, 558).
edge(102, 559).
edge(102, 560).
edge(102, 561).
edge(102, 562).
edge(103, 554).
edge(103, 555).
edge(103, 556).
edge(103, 557).
edge(103, 558).
edge(103, 559).
edge(103, 560).
edge(103, 561).
edge(103, 562).
edge(103, 563).
edge(104, 555).
edge(104, 556).
edge(104, 557).
edge(104, 558).
edge(104, 559).
edge(104, 560).
edge(104, 561).
edge(104, 562).
edge(104, 563).
edge(104, 564).
edge(105, 556).
edge(105, 557).
edge(105, 558).
edge(105, 559).
edge(105, 560).
edge(105, 561).
edge(105, 562).
edge(105, 563).
edge(105, 564).
edge(105, 565).
edge(106, 557).
edge(106, 558).
edge(106, 559).
edge(106, 560).
edge(106, 561).
edge(106, 562).
edge(106, 563).
edge(106, 564).
edge(106, 565).
edge(106, 566).
edge(107, 558).
edge(107, 559).
edge(107, 560).
edge(107, 561).
edge(107, 562).
edge(107, 563).
edge(107, 564).
edge(107, 565).
edge(107, 566).
edge(107, 567).
edge(108, 559).
edge(108, 560).
edge(108, 561).
edge(108, 562).
edge(108, 563).
edge(108, 564).
edge(108, 565).
edge(108, 566).
edge(108, 567).
edge(108, 568).
edge(109, 560).
edge(109, 561).
edge(109, 562).
edge(109, 563).
edge(109, 564).
edge(109, 565).
edge(109, 566).
edge(109, 567).
edge(109, 568).
edge(109, 569).
edge(110, 561).
edge(110, 562).
edge(110, 563).
edge(110, 564).
edge(110, 565).
edge(110, 566).
edge(110, 567).
edge(110, 568).
edge(110, 569).
edge(110, 570).
edge(111, 562).
edge(111, 563).
edge(111, 564).
edge(111, 565).
edge(111, 566).
edge(111, 567).
edge(111, 568).
edge(111, 569).
edge(111, 570).
edge(111, 571).
edge(112, 563).
edge(112, 564).
edge(112, 565).
edge(112, 566).
edge(112, 567).
edge(112, 568).
edge(112, 569).
edge(112, 570).
edge(112, 571).
edge(112, 572).
edge(113, 564).
edge(113, 565).
edge(113, 566).
edge(113, 567).
edge(113, 568).
edge(113, 569).
edge(113, 570).
edge(113, 571).
edge(113, 572).
edge(113, 573).
edge(114, 565).
edge(114, 566).
edge(114, 567).
edge(114, 568).
edge(114, 569).
edge(114, 570).
edge(114, 571).
edge(114, 572).
edge(114, 573).
edge(114, 574).
edge(115, 566).
edge(115, 567).
edge(115, 568).
edge(115, 569).
edge(115, 570).
edge(115, 571).
edge(115, 572).
edge(115, 573).
edge(115, 574).
edge(115, 575).
edge(116, 567).
edge(116, 568).
edge(116, 569).
edge(116, 570).
edge(116, 571).
edge(116, 572).
edge(116, 573).
edge(116, 574).
edge(116, 575).
edge(116, 576).
edge(117, 568).
edge(117, 569).
edge(117, 570).
edge(117, 571).
edge(117, 572).
edge(117, 573).
edge(117, 574).
edge(117, 575).
edge(117, 576).
edge(117, 577).
edge(118, 569).
edge(118, 570).
edge(118, 571).
edge(118, 572).
edge(118, 573).
edge(118, 574).
edge(118, 575).
edge(118, 576).
edge(118, 577).
edge(118, 578).
edge(119, 570).
edge(119, 571).
edge(119, 572).
edge(119, 573).
edge(119, 574).
edge(119, 575).
edge(119, 576).
edge(119, 577).
edge(119, 578).
edge(119, 579).
edge(120, 571).
edge(120, 572).
edge(120, 573).
edge(120, 574).
edge(120, 575).
edge(120, 576).
edge(120, 577).
edge(120, 578).
edge(120, 579).
edge(120, 580).
edge(121, 572).
edge(121, 573).
edge(121, 574).
edge(121, 575).
edge(121, 576).
edge(121, 577).
edge(121, 578).
edge(121, 579).
edge(121, 580).
edge(121, 581).
edge(122, 573).
edge(122, 574).
edge(122, 575).
edge(122, 576).
edge(122, 577).
edge(122, 578).
edge(122, 579).
edge(122, 580).
edge(122, 581).
edge(122, 582).
edge(123, 574).
edge(123, 575).
edge(123, 576).
edge(123, 577).
edge(123, 578).
edge(123, 579).
edge(123, 580).
edge(123, 581).
edge(123, 582).
edge(123, 583).
edge(124, 575).
edge(124, 576).
edge(124, 577).
edge(124, 578).
edge(124, 579).
edge(124, 580).
edge(124, 581).
edge(124, 582).
edge(124, 583).
edge(124, 584).
edge(125, 576).
edge(125, 577).
edge(125, 578).
edge(125, 579).
edge(125, 580).
edge(125, 581).
edge(125, 582).
edge(125, 583).
edge(125, 584).
edge(125, 585).
edge(126, 577).
edge(126, 578).
edge(126, 579).
edge(126, 580).
edge(126, 581).
edge(126, 582).
edge(126, 583).
edge(126, 584).
edge(126, 585).
edge(126, 586).
edge(127, 578).
edge(127, 579).
edge(127, 580).
edge(127, 581).
edge(127, 582).
edge(127, 583).
edge(127, 584).
edge(127, 585).
edge(127, 586).
edge(127, 587).
edge(128, 579).
edge(128, 580).
edge(128, 581).
edge(128, 582).
edge(128, 583).
edge(128, 584).
edge(128, 585).
edge(128, 586).
edge(128, 587).
edge(128, 588).
edge(129, 580).
edge(129, 581).
edge(129, 582).
edge(129, 583).
edge(129, 584).
edge(129, 585).
edge(129, 586).
edge(129, 587).
edge(129, 588).
edge(129, 589).
edge(130, 581).
edge(130, 582).
edge(130, 583).
edge(130, 584).
edge(130, 585).
edge(130, 586).
edge(130, 587).
edge(130, 588).
edge(130, 589).
edge(130, 590).
edge(131, 582).
edge(131, 583).
edge(131, 584).
edge(131, 585).
edge(131, 586).
edge(131, 587).
edge(131, 588).
edge(131, 589).
edge(131, 590).
edge(131, 591).
edge(132, 583).
edge(132, 584).
edge(132, 585).
edge(132, 586).
edge(132, 587).
edge(132, 588).
edge(132, 589).
edge(132, 590).
edge(132, 591).
edge(132, 592).
edge(133, 584).
edge(133, 585).
edge(133, 586).
edge(133, 587).
edge(133, 588).
edge(133, 589).
edge(133, 590).
edge(133, 591).
edge(133, 592).
edge(133, 593).
edge(134, 585).
edge(134, 586).
edge(134, 587).
edge(134, 588).
edge(134, 589).
edge(134, 590).
edge(134, 591).
edge(134, 592).
edge(134, 593).
edge(134, 594).
edge(135, 586).
edge(135, 587).
edge(135, 588).
edge(135, 589).
edge(135, 590).
edge(135, 591).
edge(135, 592).
edge(135, 593).
edge(135, 594).
edge(135, 595).
edge(136, 587).
edge(136, 588).
edge(136, 589).
edge(136, 590).
edge(136, 591).
edge(136, 592).
edge(136, 593).
edge(136, 594).
edge(136, 595).
edge(136, 596).
edge(137, 588).
edge(137, 589).
edge(137, 590).
edge(137, 591).
edge(137, 592).
edge(137, 593).
edge(137, 594).
edge(137, 595).
edge(137, 596).
edge(137, 597).
edge(138, 589).
edge(138, 590).
edge(138, 591).
edge(138, 592).
edge(138, 593).
edge(138, 594).
edge(138, 595).
edge(138, 596).
edge(138, 597).
edge(138, 598).
edge(139, 590).
edge(139, 591).
edge(139, 592).
edge(139, 593).
edge(139, 594).
edge(139, 595).
edge(139, 596).
edge(139, 597).
edge(139, 598).
edge(139, 599).
edge(140, 591).
edge(140, 592).
edge(140, 593).
edge(140, 594).
edge(140, 595).
edge(140, 596).
edge(140, 597).
edge(140, 598).
edge(140, 599).
edge(140, 600).
edge(141, 592).
edge(141, 593).
edge(141, 594).
edge(141, 595).
edge(141, 596).
edge(141, 597).
edge(141, 598).
edge(141, 599).
edge(141, 600).
edge(141, 601).
edge(142, 593).
edge(142, 594).
edge(142, 595).
edge(142, 596).
edge(142, 597).
edge(142, 598).
edge(142, 599).
edge(142, 600).
edge(142, 601).
edge(142, 602).
edge(143, 594).
edge(143, 595).
edge(143, 596).
edge(143, 597).
edge(143, 598).
edge(143, 599).
edge(143, 600).
edge(143, 601).
edge(143, 602).
edge(143, 603).
edge(144, 595).
edge(144, 596).
edge(144, 597).
edge(144, 598).
edge(144, 599).
edge(144, 600).
edge(144, 601).
edge(144, 602).
edge(144, 603).
edge(144, 604).
edge(145, 596).
edge(145, 597).
edge(145, 598).
edge(145, 599).
edge(145, 600).
edge(145, 601).
edge(145, 602).
edge(145, 603).
edge(145, 604).
edge(145, 605).
edge(146, 597).
edge(146, 598).
edge(146, 599).
edge(146, 600).
edge(146, 601).
edge(146, 602).
edge(146, 603).
edge(146, 604).
edge(146, 605).
edge(146, 606).
edge(147, 598).
edge(147, 599).
edge(147, 600).
edge(147, 601).
edge(147, 602).
edge(147, 603).
edge(147, 604).
edge(147, 605).
edge(147, 606).
edge(147, 607).
edge(148, 599).
edge(148, 600).
edge(148, 601).
edge(148, 602).
edge(148, 603).
edge(148, 604).
edge(148, 605).
edge(148, 606).
edge(148, 607).
edge(148, 608).
edge(149, 600).
edge(149, 601).
edge(149, 602).
edge(149, 603).
edge(149, 604).
edge(149, 605).
edge(149, 606).
edge(149, 607).
edge(149, 608).
edge(149, 609).
edge(150, 601).
edge(150, 602).
edge(150, 603).
edge(150, 604).
edge(150, 605).
edge(150, 606).
edge(150, 607).
edge(150, 608).
edge(150, 609).
edge(150, 610).
edge(151, 602).
edge(151, 603).
edge(151, 604).
edge(151, 605).
edge(151, 606).
edge(151, 607).
edge(151, 608).
edge(151, 609).
edge(151, 610).
edge(151, 611).
edge(152, 603).
edge(152, 604).
edge(152, 605).
edge(152, 606).
edge(152, 607).
edge(152, 608).
edge(152, 609).
edge(152, 610).
edge(152, 611).
edge(152, 612).
edge(153, 604).
edge(153, 605).
edge(153, 606).
edge(153, 607).
edge(153, 608).
edge(153, 609).
edge(153, 610).
edge(153, 611).
edge(153, 612).
edge(153, 613).
edge(154, 605).
edge(154, 606).
edge(154, 607).
edge(154, 608).
edge(154, 609).
edge(154, 610).
edge(154, 611).
edge(154, 612).
edge(154, 613).
edge(154, 614).
edge(155, 606).
edge(155, 607).
edge(155, 608).
edge(155, 609).
edge(155, 610).
edge(155, 611).
edge(155, 612).
edge(155, 613).
edge(155, 614).
edge(155, 615).
edge(156, 607).
edge(156, 608).
edge(156, 609).
edge(156, 610).
edge(156, 611).
edge(156, 612).
edge(156, 613).
edge(156, 614).
edge(156, 615).
edge(156, 616).
edge(157, 608).
edge(157, 609).
edge(157, 610).
edge(157, 611).
edge(157, 612).
edge(157, 613).
edge(157, 614).
edge(157, 615).
edge(157, 616).
edge(157, 617).
edge(158, 609).
edge(158, 610).
edge(158, 611).
edge(158, 612).
edge(158, 613).
edge(158, 614).
edge(158, 615).
edge(158, 616).
edge(158, 617).
edge(158, 618).
edge(159, 610).
edge(159, 611).
edge(159, 612).
edge(159, 613).
edge(159, 614).
edge(159, 615).
edge(159, 616).
edge(159, 617).
edge(159, 618).
edge(159, 619).
edge(160, 611).
edge(160, 612).
edge(160, 613).
edge(160, 614).
edge(160, 615).
edge(160, 616).
edge(160, 617).
edge(160, 618).
edge(160, 619).
edge(160, 620).
edge(161, 612).
edge(161, 613).
edge(161, 614).
edge(161, 615).
edge(161, 616).
edge(161, 617).
edge(161, 618).
edge(161, 619).
edge(161, 620).
edge(161, 621).
edge(162, 613).
edge(162, 614).
edge(162, 615).
edge(162, 616).
edge(162, 617).
edge(162, 618).
edge(162, 619).
edge(162, 620).
edge(162, 621).
edge(162, 622).
edge(163, 614).
edge(163, 615).
edge(163, 616).
edge(163, 617).
edge(163, 618).
edge(163, 619).
edge(163, 620).
edge(163, 621).
edge(163, 622).
edge(163, 623).
edge(164, 615).
edge(164, 616).
edge(164, 617).
edge(164, 618).
edge(164, 619).
edge(164, 620).
edge(164, 621).
edge(164, 622).
edge(164, 623).
edge(164, 624).
edge(165, 616).
edge(165, 617).
edge(165, 618).
edge(165, 619).
edge(165, 620).
edge(165, 621).
edge(165, 622).
edge(165, 623).
edge(165, 624).
edge(165, 625).
edge(166, 617).
edge(166, 618).
edge(166, 619).
edge(166, 620).
edge(166, 621).
edge(166, 622).
edge(166, 623).
edge(166, 624).
edge(166, 625).
edge(166, 626).
edge(167, 618).
edge(167, 619).
edge(167, 620).
edge(167, 621).
edge(167, 622).
edge(167, 623).
edge(167, 624).
edge(167, 625).
edge(167, 626).
edge(167, 627).
edge(168, 619).
edge(168, 620).
edge(168, 621).
edge(168, 622).
edge(168, 623).
edge(168, 624).
edge(168, 625).
edge(168, 626).
edge(168, 627).
edge(168, 628).
edge(169, 620).
edge(169, 621).
edge(169, 622).
edge(169, 623).
edge(169, 624).
edge(169, 625).
edge(169, 626).
edge(169, 627).
edge(169, 628).
edge(169, 629).
edge(170, 621).
edge(170, 622).
edge(170, 623).
edge(170, 624).
edge(170, 625).
edge(170, 626).
edge(170, 627).
edge(170, 628).
edge(170, 629).
edge(170, 630).
edge(171, 622).
edge(171, 623).
edge(171, 624).
edge(171, 625).
edge(171, 626).
edge(171, 627).
edge(171, 628).
edge(171, 629).
edge(171, 630).
edge(171, 631).
edge(172, 623).
edge(172, 624).
edge(172, 625).
edge(172, 626).
edge(172, 627).
edge(172, 628).
edge(172, 629).
edge(172, 630).
edge(172, 631).
edge(172, 632).
edge(173, 624).
edge(173, 625).
edge(173, 626).
edge(173, 627).
edge(173, 628).
edge(173, 629).
edge(173, 630).
edge(173, 631).
edge(173, 632).
edge(173, 633).
edge(174, 625).
edge(174, 626).
edge(174, 627).
edge(174, 628).
edge(174, 629).
edge(174, 630).
edge(174, 631).
edge(174, 632).
edge(174, 633).
edge(174, 634).
edge(175, 626).
edge(175, 627).
edge(175, 628).
edge(175, 629).
edge(175, 630).
edge(175, 631).
edge(175, 632).
edge(175, 633).
edge(175, 634).
edge(175, 635).
edge(176, 627).
edge(176, 628).
edge(176, 629).
edge(176, 630).
edge(176, 631).
edge(176, 632).
edge(176, 633).
edge(176, 634).
edge(176, 635).
edge(176, 636).
edge(177, 628).
edge(177, 629).
edge(177, 630).
edge(177, 631).
edge(177, 632).
edge(177, 633).
edge(177, 634).
edge(177, 635).
edge(177, 636).
edge(177, 637).
edge(178, 629).
edge(178, 630).
edge(178, 631).
edge(178, 632).
edge(178, 633).
edge(178, 634).
edge(178, 635).
edge(178, 636).
edge(178, 637).
edge(178, 638).
edge(179, 630).
edge(179, 631).
edge(179, 632).
edge(179, 633).
edge(179, 634).
edge(179, 635).
edge(179, 636).
edge(179, 637).
edge(179, 638).
edge(179, 639).
edge(180, 631).
edge(180, 632).
edge(180, 633).
edge(180, 634).
edge(180, 635).
edge(180, 636).
edge(180, 637).
edge(180, 638).
edge(180, 639).
edge(180, 640).
edge(181, 632).
edge(181, 633).
edge(181, 634).
edge(181, 635).
edge(181, 636).
edge(181, 637).
edge(181, 638).
edge(181, 639).
edge(181, 640).
edge(181, 641).
edge(182, 633).
edge(182, 634).
edge(182, 635).
edge(182, 636).
edge(182, 637).
edge(182, 638).
edge(182, 639).
edge(182, 640).
edge(182, 641).
edge(182, 642).
edge(183, 634).
edge(183, 635).
edge(183, 636).
edge(183, 637).
edge(183, 638).
edge(183, 639).
edge(183, 640).
edge(183, 641).
edge(183, 642).
edge(183, 643).
edge(184, 635).
edge(184, 636).
edge(184, 637).
edge(184, 638).
edge(184, 639).
edge(184, 640).
edge(184, 641).
edge(184, 642).
edge(184, 643).
edge(184, 644).
edge(185, 636).
edge(185, 637).
edge(185, 638).
edge(185, 639).
edge(185, 640).
edge(185, 641).
edge(185, 642).
edge(185, 643).
edge(185, 644).
edge(185, 645).
edge(186, 637).
edge(186, 638).
edge(186, 639).
edge(186, 640).
edge(186, 641).
edge(186, 642).
edge(186, 643).
edge(186, 644).
edge(186, 645).
edge(186, 646).
edge(187, 638).
edge(187, 639).
edge(187, 640).
edge(187, 641).
edge(187, 642).
edge(187, 643).
edge(187, 644).
edge(187, 645).
edge(187, 646).
edge(187, 647).
edge(188, 639).
edge(188, 640).
edge(188, 641).
edge(188, 642).
edge(188, 643).
edge(188, 644).
edge(188, 645).
edge(188, 646).
edge(188, 647).
edge(188, 648).
edge(189, 640).
edge(189, 641).
edge(189, 642).
edge(189, 643).
edge(189, 644).
edge(189, 645).
edge(189, 646).
edge(189, 647).
edge(189, 648).
edge(189, 649).
edge(190, 641).
edge(190, 642).
edge(190, 643).
edge(190, 644).
edge(190, 645).
edge(190, 646).
edge(190, 647).
edge(190, 648).
edge(190, 649).
edge(190, 650).
edge(191, 642).
edge(191, 643).
edge(191, 644).
edge(191, 645).
edge(191, 646).
edge(191, 647).
edge(191, 648).
edge(191, 649).
edge(191, 650).
edge(191, 651).
edge(192, 643).
edge(192, 644).
edge(192, 645).
edge(192, 646).
edge(192, 647).
edge(192, 648).
edge(192, 649).
edge(192, 650).
edge(192, 651).
edge(192, 652).
edge(193, 644).
edge(193, 645).
edge(193, 646).
edge(193, 647).
edge(193, 648).
edge(193, 649).
edge(193, 650).
edge(193, 651).
edge(193, 652).
edge(193, 653).
edge(194, 645).
edge(194, 646).
edge(194, 647).
edge(194, 648).
edge(194, 649).
edge(194, 650).
edge(194, 651).
edge(194, 652).
edge(194, 653).
edge(194, 654).
edge(195, 646).
edge(195, 647).
edge(195, 648).
edge(195, 649).
edge(195, 650).
edge(195, 651).
edge(195, 652).
edge(195, 653).
edge(195, 654).
edge(195, 655).
edge(196, 647).
edge(196, 648).
edge(196, 649).
edge(196, 650).
edge(196, 651).
edge(196, 652).
edge(196, 653).
edge(196, 654).
edge(196, 655).
edge(196, 656).
edge(197, 648).
edge(197, 649).
edge(197, 650).
edge(197, 651).
edge(197, 652).
edge(197, 653).
edge(197, 654).
edge(197, 655).
edge(197, 656).
edge(197, 657).
edge(198, 649).
edge(198, 650).
edge(198, 651).
edge(198, 652).
edge(198, 653).
edge(198, 654).
edge(198, 655).
edge(198, 656).
edge(198, 657).
edge(198, 658).
edge(199, 650).
edge(199, 651).
edge(199, 652).
edge(199, 653).
edge(199, 654).
edge(199, 655).
edge(199, 656).
edge(199, 657).
edge(199, 658).
edge(199, 659).
edge(200, 651).
edge(200, 652).
edge(200, 653).
edge(200, 654).
edge(200, 655).
edge(200, 656).
edge(200, 657).
edge(200, 658).
edge(200, 659).
edge(200, 660).
edge(201, 652).
edge(201, 653).
edge(201, 654).
edge(201, 655).
edge(201, 656).
edge(201, 657).
edge(201, 658).
edge(201, 659).
edge(201, 660).
edge(201, 661).
edge(202, 653).
edge(202, 654).
edge(202, 655).
edge(202, 656).
edge(202, 657).
edge(202, 658).
edge(202, 659).
edge(202, 660).
edge(202, 661).
edge(202, 662).
edge(203, 654).
edge(203, 655).
edge(203, 656).
edge(203, 657).
edge(203, 658).
edge(203, 659).
edge(203, 660).
edge(203, 661).
edge(203, 662).
edge(203, 663).
edge(204, 655).
edge(204, 656).
edge(204, 657).
edge(204, 658).
edge(204, 659).
edge(204, 660).
edge(204, 661).
edge(204, 662).
edge(204, 663).
edge(204, 664).
edge(205, 656).
edge(205, 657).
edge(205, 658).
edge(205, 659).
edge(205, 660).
edge(205, 661).
edge(205, 662).
edge(205, 663).
edge(205, 664).
edge(205, 665).
edge(206, 657).
edge(206, 658).
edge(206, 659).
edge(206, 660).
edge(206, 661).
edge(206, 662).
edge(206, 663).
edge(206, 664).
edge(206, 665).
edge(206, 666).
edge(207, 658).
edge(207, 659).
edge(207, 660).
edge(207, 661).
edge(207, 662).
edge(207, 663).
edge(207, 664).
edge(207, 665).
edge(207, 666).
edge(207, 667).
edge(208, 659).
edge(208, 660).
edge(208, 661).
edge(208, 662).
edge(208, 663).
edge(208, 664).
edge(208, 665).
edge(208, 666).
edge(208, 667).
edge(208, 668).
edge(209, 660).
edge(209, 661).
edge(209, 662).
edge(209, 663).
edge(209, 664).
edge(209, 665).
edge(209, 666).
edge(209, 667).
edge(209, 668).
edge(209, 669).
edge(210, 661).
edge(210, 662).
edge(210, 663).
edge(210, 664).
edge(210, 665).
edge(210, 666).
edge(210, 667).
edge(210, 668).
edge(210, 669).
edge(210, 670).
edge(211, 662).
edge(211, 663).
edge(211, 664).
edge(211, 665).
edge(211, 666).
edge(211, 667).
edge(211, 668).
edge(211, 669).
edge(211, 670).
edge(211, 671).
edge(212, 663).
edge(212, 664).
edge(212, 665).
edge(212, 666).
edge(212, 667).
edge(212, 668).
edge(212, 669).
edge(212, 670).
edge(212, 671).
edge(212, 672).
edge(213, 664).
edge(213, 665).
edge(213, 666).
edge(213, 667).
edge(213, 668).
edge(213, 669).
edge(213, 670).
edge(213, 671).
edge(213, 672).
edge(213, 673).
edge(214, 665).
edge(214, 666).
edge(214, 667).
edge(214, 668).
edge(214, 669).
edge(214, 670).
edge(214, 671).
edge(214, 672).
edge(214, 673).
edge(214, 674).
edge(215, 666).
edge(215, 667).
edge(215, 668).
edge(215, 669).
edge(215, 670).
edge(215, 671).
edge(215, 672).
edge(215, 673).
edge(215, 674).
edge(215, 675).
edge(216, 667).
edge(216, 668).
edge(216, 669).
edge(216, 670).
edge(216, 671).
edge(216, 672).
edge(216, 673).
edge(216, 674).
edge(216, 675).
edge(216, 676).
edge(217, 668).
edge(217, 669).
edge(217, 670).
edge(217, 671).
edge(217, 672).
edge(217, 673).
edge(217, 674).
edge(217, 675).
edge(217, 676).
edge(217, 677).
edge(218, 669).
edge(218, 670).
edge(218, 671).
edge(218, 672).
edge(218, 673).
edge(218, 674).
edge(218, 675).
edge(218, 676).
edge(218, 677).
edge(218, 678).
edge(219, 670).
edge(219, 671).
edge(219, 672).
edge(219, 673).
edge(219, 674).
edge(219, 675).
edge(219, 676).
edge(219, 677).
edge(219, 678).
edge(219, 679).
edge(220, 671).
edge(220, 672).
edge(220, 673).
edge(220, 674).
edge(220, 675).
edge(220, 676).
edge(220, 677).
edge(220, 678).
edge(220, 679).
edge(220, 680).
edge(221, 672).
edge(221, 673).
edge(221, 674).
edge(221, 675).
edge(221, 676).
edge(221, 677).
edge(221, 678).
edge(221, 679).
edge(221, 680).
edge(221, 681).
edge(222, 673).
edge(222, 674).
edge(222, 675).
edge(222, 676).
edge(222, 677).
edge(222, 678).
edge(222, 679).
edge(222, 680).
edge(222, 681).
edge(222, 682).
edge(223, 674).
edge(223, 675).
edge(223, 676).
edge(223, 677).
edge(223, 678).
edge(223, 679).
edge(223, 680).
edge(223, 681).
edge(223, 682).
edge(223, 683).
edge(224, 675).
edge(224, 676).
edge(224, 677).
edge(224, 678).
edge(224, 679).
edge(224, 680).
edge(224, 681).
edge(224, 682).
edge(224, 683).
edge(224, 684).
edge(225, 676).
edge(225, 677).
edge(225, 678).
edge(225, 679).
edge(225, 680).
edge(225, 681).
edge(225, 682).
edge(225, 683).
edge(225, 684).
edge(225, 685).
edge(226, 677).
edge(226, 678).
edge(226, 679).
edge(226, 680).
edge(226, 681).
edge(226, 682).
edge(226, 683).
edge(226, 684).
edge(226, 685).
edge(226, 686).
edge(227, 678).
edge(227, 679).
edge(227, 680).
edge(227, 681).
edge(227, 682).
edge(227, 683).
edge(227, 684).
edge(227, 685).
edge(227, 686).
edge(227, 687).
edge(228, 679).
edge(228, 680).
edge(228, 681).
edge(228, 682).
edge(228, 683).
edge(228, 684).
edge(228, 685).
edge(228, 686).
edge(228, 687).
edge(228, 688).
edge(229, 680).
edge(229, 681).
edge(229, 682).
edge(229, 683).
edge(229, 684).
edge(229, 685).
edge(229, 686).
edge(229, 687).
edge(229, 688).
edge(229, 689).
edge(230, 681).
edge(230, 682).
edge(230, 683).
edge(230, 684).
edge(230, 685).
edge(230, 686).
edge(230, 687).
edge(230, 688).
edge(230, 689).
edge(230, 690).
edge(231, 682).
edge(231, 683).
edge(231, 684).
edge(231, 685).
edge(231, 686).
edge(231, 687).
edge(231, 688).
edge(231, 689).
edge(231, 690).
edge(231, 691).
edge(232, 683).
edge(232, 684).
edge(232, 685).
edge(232, 686).
edge(232, 687).
edge(232, 688).
edge(232, 689).
edge(232, 690).
edge(232, 691).
edge(232, 692).
edge(233, 684).
edge(233, 685).
edge(233, 686).
edge(233, 687).
edge(233, 688).
edge(233, 689).
edge(233, 690).
edge(233, 691).
edge(233, 692).
edge(233, 693).
edge(234, 685).
edge(234, 686).
edge(234, 687).
edge(234, 688).
edge(234, 689).
edge(234, 690).
edge(234, 691).
edge(234, 692).
edge(234, 693).
edge(234, 694).
edge(235, 686).
edge(235, 687).
edge(235, 688).
edge(235, 689).
edge(235, 690).
edge(235, 691).
edge(235, 692).
edge(235, 693).
edge(235, 694).
edge(235, 695).
edge(236, 687).
edge(236, 688).
edge(236, 689).
edge(236, 690).
edge(236, 691).
edge(236, 692).
edge(236, 693).
edge(236, 694).
edge(236, 695).
edge(236, 696).
edge(237, 688).
edge(237, 689).
edge(237, 690).
edge(237, 691).
edge(237, 692).
edge(237, 693).
edge(237, 694).
edge(237, 695).
edge(237, 696).
edge(237, 697).
edge(238, 689).
edge(238, 690).
edge(238, 691).
edge(238, 692).
edge(238, 693).
edge(238, 694).
edge(238, 695).
edge(238, 696).
edge(238, 697).
edge(238, 698).
edge(239, 690).
edge(239, 691).
edge(239, 692).
edge(239, 693).
edge(239, 694).
edge(239, 695).
edge(239, 696).
edge(239, 697).
edge(239, 698).
edge(239, 699).
edge(240, 691).
edge(240, 692).
edge(240, 693).
edge(240, 694).
edge(240, 695).
edge(240, 696).
edge(240, 697).
edge(240, 698).
edge(240, 699).
edge(240, 700).
edge(241, 692).
edge(241, 693).
edge(241, 694).
edge(241, 695).
edge(241, 696).
edge(241, 697).
edge(241, 698).
edge(241, 699).
edge(241, 700).
edge(241, 701).
edge(242, 693).
edge(242, 694).
edge(242, 695).
edge(242, 696).
edge(242, 697).
edge(242, 698).
edge(242, 699).
edge(242, 700).
edge(242, 701).
edge(242, 702).
edge(243, 694).
edge(243, 695).
edge(243, 696).
edge(243, 697).
edge(243, 698).
edge(243, 699).
edge(243, 700).
edge(243, 701).
edge(243, 702).
edge(243, 703).
edge(244, 695).
edge(244, 696).
edge(244, 697).
edge(244, 698).
edge(244, 699).
edge(244, 700).
edge(244, 701).
edge(244, 702).
edge(244, 703).
edge(244, 704).
edge(245, 696).
edge(245, 697).
edge(245, 698).
edge(245, 699).
edge(245, 700).
edge(245, 701).
edge(245, 702).
edge(245, 703).
edge(245, 704).
edge(245, 705).
edge(246, 697).
edge(246, 698).
edge(246, 699).
edge(246, 700).
edge(246, 701).
edge(246, 702).
edge(246, 703).
edge(246, 704).
edge(246, 705).
edge(246, 706).
edge(247, 698).
edge(247, 699).
edge(247, 700).
edge(247, 701).
edge(247, 702).
edge(247, 703).
edge(247, 704).
edge(247, 705).
edge(247, 706).
edge(247, 707).
edge(248, 699).
edge(248, 700).
edge(248, 701).
edge(248, 702).
edge(248, 703).
edge(248, 704).
edge(248, 705).
edge(248, 706).
edge(248, 707).
edge(248, 708).
edge(249, 700).
edge(249, 701).
edge(249, 702).
edge(249, 703).
edge(249, 704).
edge(249, 705).
edge(249, 706).
edge(249, 707).
edge(249, 708).
edge(249, 709).
edge(250, 701).
edge(250, 702).
edge(250, 703).
edge(250, 704).
edge(250, 705).
edge(250, 706).
edge(250, 707).
edge(250, 708).
edge(250, 709).
edge(250, 710).
edge(251, 702).
edge(251, 703).
edge(251, 704).
edge(251, 705).
edge(251, 706).
edge(251, 707).
edge(251, 708).
edge(251, 709).
edge(251, 710).
edge(251, 711).
edge(252, 703).
edge(252, 704).
edge(252, 705).
edge(252, 706).
edge(252, 707).
edge(252, 708).
edge(252, 709).
edge(252, 710).
edge(252, 711).
edge(252, 712).
edge(253, 704).
edge(253, 705).
edge(253, 706).
edge(253, 707).
edge(253, 708).
edge(253, 709).
edge(253, 710).
edge(253, 711).
edge(253, 712).
edge(253, 713).
edge(254, 705).
edge(254, 706).
edge(254, 707).
edge(254, 708).
edge(254, 709).
edge(254, 710).
edge(254, 711).
edge(254, 712).
edge(254, 713).
edge(254, 714).
edge(255, 706).
edge(255, 707).
edge(255, 708).
edge(255, 709).
edge(255, 710).
edge(255, 711).
edge(255, 712).
edge(255, 713).
edge(255, 714).
edge(255, 715).
edge(256, 707).
edge(256, 708).
edge(256, 709).
edge(256, 710).
edge(256, 711).
edge(256, 712).
edge(256, 713).
edge(256, 714).
edge(256, 715).
edge(256, 716).
edge(257, 708).
edge(257, 709).
edge(257, 710).
edge(257, 711).
edge(257, 712).
edge(257, 713).
edge(257, 714).
edge(257, 715).
edge(257, 716).
edge(257, 717).
edge(258, 709).
edge(258, 710).
edge(258, 711).
edge(258, 712).
edge(258, 713).
edge(258, 714).
edge(258, 715).
edge(258, 716).
edge(258, 717).
edge(258, 718).
edge(259, 710).
edge(259, 711).
edge(259, 712).
edge(259, 713).
edge(259, 714).
edge(259, 715).
edge(259, 716).
edge(259, 717).
edge(259, 718).
edge(259, 719).
edge(260, 711).
edge(260, 712).
edge(260, 713).
edge(260, 714).
edge(260, 715).
edge(260, 716).
edge(260, 717).
edge(260, 718).
edge(260, 719).
edge(260, 720).
edge(261, 712).
edge(261, 713).
edge(261, 714).
edge(261, 715).
edge(261, 716).
edge(261, 717).
edge(261, 718).
edge(261, 719).
edge(261, 720).
edge(261, 721).
edge(262, 713).
edge(262, 714).
edge(262, 715).
edge(262, 716).
edge(262, 717).
edge(262, 718).
edge(262, 719).
edge(262, 720).
edge(262, 721).
edge(262, 722).
edge(263, 714).
edge(263, 715).
edge(263, 716).
edge(263, 717).
edge(263, 718).
edge(263, 719).
edge(263, 720).
edge(263, 721).
edge(263, 722).
edge(263, 723).
edge(264, 715).
edge(264, 716).
edge(264, 717).
edge(264, 718).
edge(264, 719).
edge(264, 720).
edge(264, 721).
edge(264, 722).
edge(264, 723).
edge(264, 724).
edge(265, 716).
edge(265, 717).
edge(265, 718).
edge(265, 719).
edge(265, 720).
edge(265, 721).
edge(265, 722).
edge(265, 723).
edge(265, 724).
edge(265, 725).
edge(266, 717).
edge(266, 718).
edge(266, 719).
edge(266, 720).
edge(266, 721).
edge(266, 722).
edge(266, 723).
edge(266, 724).
edge(266, 725).
edge(266, 726).
edge(267, 718).
edge(267, 719).
edge(267, 720).
edge(267, 721).
edge(267, 722).
edge(267, 723).
edge(267, 724).
edge(267, 725).
edge(267, 726).
edge(267, 727).
edge(268, 719).
edge(268, 720).
edge(268, 721).
edge(268, 722).
edge(268, 723).
edge(268, 724).
edge(268, 725).
edge(268, 726).
edge(268, 727).
edge(268, 728).
edge(269, 720).
edge(269, 721).
edge(269, 722).
edge(269, 723).
edge(269, 724).
edge(269, 725).
edge(269, 726).
edge(269, 727).
edge(269, 728).
edge(269, 729).
edge(270, 721).
edge(270, 722).
edge(270, 723).
edge(270, 724).
edge(270, 725).
edge(270, 726).
edge(270, 727).
edge(270, 728).
edge(270, 729).
edge(270, 730).
edge(271, 722).
edge(271, 723).
edge(271, 724).
edge(271, 725).
edge(271, 726).
edge(271, 727).
edge(271, 728).
edge(271, 729).
edge(271, 730).
edge(271, 731).
edge(272, 723).
edge(272, 724).
edge(272, 725).
edge(272, 726).
edge(272, 727).
edge(272, 728).
edge(272, 729).
edge(272, 730).
edge(272, 731).
edge(272, 732).
edge(273, 724).
edge(273, 725).
edge(273, 726).
edge(273, 727).
edge(273, 728).
edge(273, 729).
edge(273, 730).
edge(273, 731).
edge(273, 732).
edge(273, 733).
edge(274, 725).
edge(274, 726).
edge(274, 727).
edge(274, 728).
edge(274, 729).
edge(274, 730).
edge(274, 731).
edge(274, 732).
edge(274, 733).
edge(274, 734).
edge(275, 726).
edge(275, 727).
edge(275, 728).
edge(275, 729).
edge(275, 730).
edge(275, 731).
edge(275, 732).
edge(275, 733).
edge(275, 734).
edge(275, 735).
edge(276, 727).
edge(276, 728).
edge(276, 729).
edge(276, 730).
edge(276, 731).
edge(276, 732).
edge(276, 733).
edge(276, 734).
edge(276, 735).
edge(276, 736).
edge(277, 728).
edge(277, 729).
edge(277, 730).
edge(277, 731).
edge(277, 732).
edge(277, 733).
edge(277, 734).
edge(277, 735).
edge(277, 736).
edge(277, 737).
edge(278, 729).
edge(278, 730).
edge(278, 731).
edge(278, 732).
edge(278, 733).
edge(278, 734).
edge(278, 735).
edge(278, 736).
edge(278, 737).
edge(278, 738).
edge(279, 730).
edge(279, 731).
edge(279, 732).
edge(279, 733).
edge(279, 734).
edge(279, 735).
edge(279, 736).
edge(279, 737).
edge(279, 738).
edge(279, 739).
edge(280, 731).
edge(280, 732).
edge(280, 733).
edge(280, 734).
edge(280, 735).
edge(280, 736).
edge(280, 737).
edge(280, 738).
edge(280, 739).
edge(280, 740).
edge(281, 732).
edge(281, 733).
edge(281, 734).
edge(281, 735).
edge(281, 736).
edge(281, 737).
edge(281, 738).
edge(281, 739).
edge(281, 740).
edge(281, 741).
edge(282, 733).
edge(282, 734).
edge(282, 735).
edge(282, 736).
edge(282, 737).
edge(282, 738).
edge(282, 739).
edge(282, 740).
edge(282, 741).
edge(282, 742).
edge(283, 734).
edge(283, 735).
edge(283, 736).
edge(283, 737).
edge(283, 738).
edge(283, 739).
edge(283, 740).
edge(283, 741).
edge(283, 742).
edge(283, 743).
edge(284, 735).
edge(284, 736).
edge(284, 737).
edge(284, 738).
edge(284, 739).
edge(284, 740).
edge(284, 741).
edge(284, 742).
edge(284, 743).
edge(284, 744).
edge(285, 736).
edge(285, 737).
edge(285, 738).
edge(285, 739).
edge(285, 740).
edge(285, 741).
edge(285, 742).
edge(285, 743).
edge(285, 744).
edge(285, 745).
edge(286, 737).
edge(286, 738).
edge(286, 739).
edge(286, 740).
edge(286, 741).
edge(286, 742).
edge(286, 743).
edge(286, 744).
edge(286, 745).
edge(286, 746).
edge(287, 738).
edge(287, 739).
edge(287, 740).
edge(287, 741).
edge(287, 742).
edge(287, 743).
edge(287, 744).
edge(287, 745).
edge(287, 746).
edge(287, 747).
edge(288, 739).
edge(288, 740).
edge(288, 741).
edge(288, 742).
edge(288, 743).
edge(288, 744).
edge(288, 745).
edge(288, 746).
edge(288, 747).
edge(288, 748).
edge(289, 740).
edge(289, 741).
edge(289, 742).
edge(289, 743).
edge(289, 744).
edge(289, 745).
edge(289, 746).
edge(289, 747).
edge(289, 748).
edge(289, 749).
edge(290, 741).
edge(290, 742).
edge(290, 743).
edge(290, 744).
edge(290, 745).
edge(290, 746).
edge(290, 747).
edge(290, 748).
edge(290, 749).
edge(290, 750).
edge(291, 742).
edge(291, 743).
edge(291, 744).
edge(291, 745).
edge(291, 746).
edge(291, 747).
edge(291, 748).
edge(291, 749).
edge(291, 750).
edge(291, 751).
edge(292, 743).
edge(292, 744).
edge(292, 745).
edge(292, 746).
edge(292, 747).
edge(292, 748).
edge(292, 749).
edge(292, 750).
edge(292, 751).
edge(292, 752).
edge(293, 744).
edge(293, 745).
edge(293, 746).
edge(293, 747).
edge(293, 748).
edge(293, 749).
edge(293, 750).
edge(293, 751).
edge(293, 752).
edge(293, 753).
edge(294, 745).
edge(294, 746).
edge(294, 747).
edge(294, 748).
edge(294, 749).
edge(294, 750).
edge(294, 751).
edge(294, 752).
edge(294, 753).
edge(294, 754).
edge(295, 746).
edge(295, 747).
edge(295, 748).
edge(295, 749).
edge(295, 750).
edge(295, 751).
edge(295, 752).
edge(295, 753).
edge(295, 754).
edge(295, 755).
edge(296, 747).
edge(296, 748).
edge(296, 749).
edge(296, 750).
edge(296, 751).
edge(296, 752).
edge(296, 753).
edge(296, 754).
edge(296, 755).
edge(296, 756).
edge(297, 748).
edge(297, 749).
edge(297, 750).
edge(297, 751).
edge(297, 752).
edge(297, 753).
edge(297, 754).
edge(297, 755).
edge(297, 756).
edge(297, 757).
edge(298, 749).
edge(298, 750).
edge(298, 751).
edge(298, 752).
edge(298, 753).
edge(298, 754).
edge(298, 755).
edge(298, 756).
edge(298, 757).
edge(298, 758).
edge(299, 750).
edge(299, 751).
edge(299, 752).
edge(299, 753).
edge(299, 754).
edge(299, 755).
edge(299, 756).
edge(299, 757).
edge(299, 758).
edge(299, 759).
edge(300, 751).
edge(300, 752).
edge(300, 753).
edge(300, 754).
edge(300, 755).
edge(300, 756).
edge(300, 757).
edge(300, 758).
edge(300, 759).
edge(300, 760).
edge(301, 752).
edge(301, 753).
edge(301, 754).
edge(301, 755).
edge(301, 756).
edge(301, 757).
edge(301, 758).
edge(301, 759).
edge(301, 760).
edge(301, 761).
edge(302, 753).
edge(302, 754).
edge(302, 755).
edge(302, 756).
edge(302, 757).
edge(302, 758).
edge(302, 759).
edge(302, 760).
edge(302, 761).
edge(302, 762).
edge(303, 754).
edge(303, 755).
edge(303, 756).
edge(303, 757).
edge(303, 758).
edge(303, 759).
edge(303, 760).
edge(303, 761).
edge(303, 762).
edge(303, 763).
edge(304, 755).
edge(304, 756).
edge(304, 757).
edge(304, 758).
edge(304, 759).
edge(304, 760).
edge(304, 761).
edge(304, 762).
edge(304, 763).
edge(304, 764).
edge(305, 756).
edge(305, 757).
edge(305, 758).
edge(305, 759).
edge(305, 760).
edge(305, 761).
edge(305, 762).
edge(305, 763).
edge(305, 764).
edge(305, 765).
edge(306, 757).
edge(306, 758).
edge(306, 759).
edge(306, 760).
edge(306, 761).
edge(306, 762).
edge(306, 763).
edge(306, 764).
edge(306, 765).
edge(306, 766).
edge(307, 758).
edge(307, 759).
edge(307, 760).
edge(307, 761).
edge(307, 762).
edge(307, 763).
edge(307, 764).
edge(307, 765).
edge(307, 766).
edge(307, 767).
edge(308, 759).
edge(308, 760).
edge(308, 761).
edge(308, 762).
edge(308, 763).
edge(308, 764).
edge(308, 765).
edge(308, 766).
edge(308, 767).
edge(308, 768).
edge(309, 760).
edge(309, 761).
edge(309, 762).
edge(309, 763).
edge(309, 764).
edge(309, 765).
edge(309, 766).
edge(309, 767).
edge(309, 768).
edge(309, 769).
edge(310, 761).
edge(310, 762).
edge(310, 763).
edge(310, 764).
edge(310, 765).
edge(310, 766).
edge(310, 767).
edge(310, 768).
edge(310, 769).
edge(310, 770).
edge(311, 762).
edge(311, 763).
edge(311, 764).
edge(311, 765).
edge(311, 766).
edge(311, 767).
edge(311, 768).
edge(311, 769).
edge(311, 770).
edge(311, 771).
edge(312, 763).
edge(312, 764).
edge(312, 765).
edge(312, 766).
edge(312, 767).
edge(312, 768).
edge(312, 769).
edge(312, 770).
edge(312, 771).
edge(312, 772).
edge(313, 764).
edge(313, 765).
edge(313, 766).
edge(313, 767).
edge(313, 768).
edge(313, 769).
edge(313, 770).
edge(313, 771).
edge(313, 772).
edge(313, 773).
edge(314, 765).
edge(314, 766).
edge(314, 767).
edge(314, 768).
edge(314, 769).
edge(314, 770).
edge(314, 771).
edge(314, 772).
edge(314, 773).
edge(314, 774).
edge(315, 766).
edge(315, 767).
edge(315, 768).
edge(315, 769).
edge(315, 770).
edge(315, 771).
edge(315, 772).
edge(315, 773).
edge(315, 774).
edge(315, 775).
edge(316, 767).
edge(316, 768).
edge(316, 769).
edge(316, 770).
edge(316, 771).
edge(316, 772).
edge(316, 773).
edge(316, 774).
edge(316, 775).
edge(316, 776).
edge(317, 768).
edge(317, 769).
edge(317, 770).
edge(317, 771).
edge(317, 772).
edge(317, 773).
edge(317, 774).
edge(317, 775).
edge(317, 776).
edge(317, 777).
edge(318, 769).
edge(318, 770).
edge(318, 771).
edge(318, 772).
edge(318, 773).
edge(318, 774).
edge(318, 775).
edge(318, 776).
edge(318, 777).
edge(318, 778).
edge(319, 770).
edge(319, 771).
edge(319, 772).
edge(319, 773).
edge(319, 774).
edge(319, 775).
edge(319, 776).
edge(319, 777).
edge(319, 778).
edge(319, 779).
edge(320, 771).
edge(320, 772).
edge(320, 773).
edge(320, 774).
edge(320, 775).
edge(320, 776).
edge(320, 777).
edge(320, 778).
edge(320, 779).
edge(320, 780).
edge(321, 772).
edge(321, 773).
edge(321, 774).
edge(321, 775).
edge(321, 776).
edge(321, 777).
edge(321, 778).
edge(321, 779).
edge(321, 780).
edge(321, 781).
edge(322, 773).
edge(322, 774).
edge(322, 775).
edge(322, 776).
edge(322, 777).
edge(322, 778).
edge(322, 779).
edge(322, 780).
edge(322, 781).
edge(322, 782).
edge(323, 774).
edge(323, 775).
edge(323, 776).
edge(323, 777).
edge(323, 778).
edge(323, 779).
edge(323, 780).
edge(323, 781).
edge(323, 782).
edge(323, 783).
edge(324, 775).
edge(324, 776).
edge(324, 777).
edge(324, 778).
edge(324, 779).
edge(324, 780).
edge(324, 781).
edge(324, 782).
edge(324, 783).
edge(324, 784).
edge(325, 776).
edge(325, 777).
edge(325, 778).
edge(325, 779).
edge(325, 780).
edge(325, 781).
edge(325, 782).
edge(325, 783).
edge(325, 784).
edge(325, 785).
edge(326, 777).
edge(326, 778).
edge(326, 779).
edge(326, 780).
edge(326, 781).
edge(326, 782).
edge(326, 783).
edge(326, 784).
edge(326, 785).
edge(326, 786).
edge(327, 778).
edge(327, 779).
edge(327, 780).
edge(327, 781).
edge(327, 782).
edge(327, 783).
edge(327, 784).
edge(327, 785).
edge(327, 786).
edge(327, 787).
edge(328, 779).
edge(328, 780).
edge(328, 781).
edge(328, 782).
edge(328, 783).
edge(328, 784).
edge(328, 785).
edge(328, 786).
edge(328, 787).
edge(328, 788).
edge(329, 780).
edge(329, 781).
edge(329, 782).
edge(329, 783).
edge(329, 784).
edge(329, 785).
edge(329, 786).
edge(329, 787).
edge(329, 788).
edge(329, 789).
edge(330, 781).
edge(330, 782).
edge(330, 783).
edge(330, 784).
edge(330, 785).
edge(330, 786).
edge(330, 787).
edge(330, 788).
edge(330, 789).
edge(330, 790).
edge(331, 782).
edge(331, 783).
edge(331, 784).
edge(331, 785).
edge(331, 786).
edge(331, 787).
edge(331, 788).
edge(331, 789).
edge(331, 790).
edge(331, 791).
edge(332, 783).
edge(332, 784).
edge(332, 785).
edge(332, 786).
edge(332, 787).
edge(332, 788).
edge(332, 789).
edge(332, 790).
edge(332, 791).
edge(332, 792).
edge(333, 784).
edge(333, 785).
edge(333, 786).
edge(333, 787).
edge(333, 788).
edge(333, 789).
edge(333, 790).
edge(333, 791).
edge(333, 792).
edge(333, 793).
edge(334, 785).
edge(334, 786).
edge(334, 787).
edge(334, 788).
edge(334, 789).
edge(334, 790).
edge(334, 791).
edge(334, 792).
edge(334, 793).
edge(334, 794).
edge(335, 786).
edge(335, 787).
edge(335, 788).
edge(335, 789).
edge(335, 790).
edge(335, 791).
edge(335, 792).
edge(335, 793).
edge(335, 794).
edge(335, 795).
edge(336, 787).
edge(336, 788).
edge(336, 789).
edge(336, 790).
edge(336, 791).
edge(336, 792).
edge(336, 793).
edge(336, 794).
edge(336, 795).
edge(336, 796).
edge(337, 788).
edge(337, 789).
edge(337, 790).
edge(337, 791).
edge(337, 792).
edge(337, 793).
edge(337, 794).
edge(337, 795).
edge(337, 796).
edge(337, 797).
edge(338, 789).
edge(338, 790).
edge(338, 791).
edge(338, 792).
edge(338, 793).
edge(338, 794).
edge(338, 795).
edge(338, 796).
edge(338, 797).
edge(338, 798).
edge(339, 790).
edge(339, 791).
edge(339, 792).
edge(339, 793).
edge(339, 794).
edge(339, 795).
edge(339, 796).
edge(339, 797).
edge(339, 798).
edge(339, 799).
edge(340, 791).
edge(340, 792).
edge(340, 793).
edge(340, 794).
edge(340, 795).
edge(340, 796).
edge(340, 797).
edge(340, 798).
edge(340, 799).
edge(340, 800).
edge(341, 792).
edge(341, 793).
edge(341, 794).
edge(341, 795).
edge(341, 796).
edge(341, 797).
edge(341, 798).
edge(341, 799).
edge(341, 800).
edge(341, 801).
edge(342, 793).
edge(342, 794).
edge(342, 795).
edge(342, 796).
edge(342, 797).
edge(342, 798).
edge(342, 799).
edge(342, 800).
edge(342, 801).
edge(342, 802).
edge(343, 794).
edge(343, 795).
edge(343, 796).
edge(343, 797).
edge(343, 798).
edge(343, 799).
edge(343, 800).
edge(343, 801).
edge(343, 802).
edge(343, 803).
edge(344, 795).
edge(344, 796).
edge(344, 797).
edge(344, 798).
edge(344, 799).
edge(344, 800).
edge(344, 801).
edge(344, 802).
edge(344, 803).
edge(344, 804).
edge(345, 796).
edge(345, 797).
edge(345, 798).
edge(345, 799).
edge(345, 800).
edge(345, 801).
edge(345, 802).
edge(345, 803).
edge(345, 804).
edge(345, 805).
edge(346, 797).
edge(346, 798).
edge(346, 799).
edge(346, 800).
edge(346, 801).
edge(346, 802).
edge(346, 803).
edge(346, 804).
edge(346, 805).
edge(346, 806).
edge(347, 798).
edge(347, 799).
edge(347, 800).
edge(347, 801).
edge(347, 802).
edge(347, 803).
edge(347, 804).
edge(347, 805).
edge(347, 806).
edge(347, 807).
edge(348, 799).
edge(348, 800).
edge(348, 801).
edge(348, 802).
edge(348, 803).
edge(348, 804).
edge(348, 805).
edge(348, 806).
edge(348, 807).
edge(348, 808).
edge(349, 800).
edge(349, 801).
edge(349, 802).
edge(349, 803).
edge(349, 804).
edge(349, 805).
edge(349, 806).
edge(349, 807).
edge(349, 808).
edge(349, 809).
edge(350, 801).
edge(350, 802).
edge(350, 803).
edge(350, 804).
edge(350, 805).
edge(350, 806).
edge(350, 807).
edge(350, 808).
edge(350, 809).
edge(350, 810).
edge(351, 802).
edge(351, 803).
edge(351, 804).
edge(351, 805).
edge(351, 806).
edge(351, 807).
edge(351, 808).
edge(351, 809).
edge(351, 810).
edge(351, 811).
edge(352, 803).
edge(352, 804).
edge(352, 805).
edge(352, 806).
edge(352, 807).
edge(352, 808).
edge(352, 809).
edge(352, 810).
edge(352, 811).
edge(352, 812).
edge(353, 804).
edge(353, 805).
edge(353, 806).
edge(353, 807).
edge(353, 808).
edge(353, 809).
edge(353, 810).
edge(353, 811).
edge(353, 812).
edge(353, 813).
edge(354, 805).
edge(354, 806).
edge(354, 807).
edge(354, 808).
edge(354, 809).
edge(354, 810).
edge(354, 811).
edge(354, 812).
edge(354, 813).
edge(354, 814).
edge(355, 806).
edge(355, 807).
edge(355, 808).
edge(355, 809).
edge(355, 810).
edge(355, 811).
edge(355, 812).
edge(355, 813).
edge(355, 814).
edge(355, 815).
edge(356, 807).
edge(356, 808).
edge(356, 809).
edge(356, 810).
edge(356, 811).
edge(356, 812).
edge(356, 813).
edge(356, 814).
edge(356, 815).
edge(356, 816).
edge(357, 808).
edge(357, 809).
edge(357, 810).
edge(357, 811).
edge(357, 812).
edge(357, 813).
edge(357, 814).
edge(357, 815).
edge(357, 816).
edge(357, 817).
edge(358, 809).
edge(358, 810).
edge(358, 811).
edge(358, 812).
edge(358, 813).
edge(358, 814).
edge(358, 815).
edge(358, 816).
edge(358, 817).
edge(358, 818).
edge(359, 810).
edge(359, 811).
edge(359, 812).
edge(359, 813).
edge(359, 814).
edge(359, 815).
edge(359, 816).
edge(359, 817).
edge(359, 818).
edge(359, 819).
edge(360, 811).
edge(360, 812).
edge(360, 813).
edge(360, 814).
edge(360, 815).
edge(360, 816).
edge(360, 817).
edge(360, 818).
edge(360, 819).
edge(360, 820).
edge(361, 812).
edge(361, 813).
edge(361, 814).
edge(361, 815).
edge(361, 816).
edge(361, 817).
edge(361, 818).
edge(361, 819).
edge(361, 820).
edge(361, 821).
edge(362, 813).
edge(362, 814).
edge(362, 815).
edge(362, 816).
edge(362, 817).
edge(362, 818).
edge(362, 819).
edge(362, 820).
edge(362, 821).
edge(362, 822).
edge(363, 814).
edge(363, 815).
edge(363, 816).
edge(363, 817).
edge(363, 818).
edge(363, 819).
edge(363, 820).
edge(363, 821).
edge(363, 822).
edge(363, 823).
edge(364, 815).
edge(364, 816).
edge(364, 817).
edge(364, 818).
edge(364, 819).
edge(364, 820).
edge(364, 821).
edge(364, 822).
edge(364, 823).
edge(364, 824).
edge(365, 816).
edge(365, 817).
edge(365, 818).
edge(365, 819).
edge(365, 820).
edge(365, 821).
edge(365, 822).
edge(365, 823).
edge(365, 824).
edge(365, 825).
edge(366, 817).
edge(366, 818).
edge(366, 819).
edge(366, 820).
edge(366, 821).
edge(366, 822).
edge(366, 823).
edge(366, 824).
edge(366, 825).
edge(366, 826).
edge(367, 818).
edge(367, 819).
edge(367, 820).
edge(367, 821).
edge(367, 822).
edge(367, 823).
edge(367, 824).
edge(367, 825).
edge(367, 826).
edge(367, 827).
edge(368, 819).
edge(368, 820).
edge(368, 821).
edge(368, 822).
edge(368, 823).
edge(368, 824).
edge(368, 825).
edge(368, 826).
edge(368, 827).
edge(368, 828).
edge(369, 820).
edge(369, 821).
edge(369, 822).
edge(369, 823).
edge(369, 824).
edge(369, 825).
edge(369, 826).
edge(369, 827).
edge(369, 828).
edge(369, 829).
edge(370, 821).
edge(370, 822).
edge(370, 823).
edge(370, 824).
edge(370, 825).
edge(370, 826).
edge(370, 827).
edge(370, 828).
edge(370, 829).
edge(370, 830).
edge(371, 822).
edge(371, 823).
edge(371, 824).
edge(371, 825).
edge(371, 826).
edge(371, 827).
edge(371, 828).
edge(371, 829).
edge(371, 830).
edge(371, 831).
edge(372, 823).
edge(372, 824).
edge(372, 825).
edge(372, 826).
edge(372, 827).
edge(372, 828).
edge(372, 829).
edge(372, 830).
edge(372, 831).
edge(372, 832).
edge(373, 824).
edge(373, 825).
edge(373, 826).
edge(373, 827).
edge(373, 828).
edge(373, 829).
edge(373, 830).
edge(373, 831).
edge(373, 832).
edge(373, 833).
edge(374, 825).
edge(374, 826).
edge(374, 827).
edge(374, 828).
edge(374, 829).
edge(374, 830).
edge(374, 831).
edge(374, 832).
edge(374, 833).
edge(374, 834).
edge(375, 826).
edge(375, 827).
edge(375, 828).
edge(375, 829).
edge(375, 830).
edge(375, 831).
edge(375, 832).
edge(375, 833).
edge(375, 834).
edge(375, 835).
edge(376, 827).
edge(376, 828).
edge(376, 829).
edge(376, 830).
edge(376, 831).
edge(376, 832).
edge(376, 833).
edge(376, 834).
edge(376, 835).
edge(376, 836).
edge(377, 828).
edge(377, 829).
edge(377, 830).
edge(377, 831).
edge(377, 832).
edge(377, 833).
edge(377, 834).
edge(377, 835).
edge(377, 836).
edge(377, 837).
edge(378, 829).
edge(378, 830).
edge(378, 831).
edge(378, 832).
edge(378, 833).
edge(378, 834).
edge(378, 835).
edge(378, 836).
edge(378, 837).
edge(378, 838).
edge(379, 830).
edge(379, 831).
edge(379, 832).
edge(379, 833).
edge(379, 834).
edge(379, 835).
edge(379, 836).
edge(379, 837).
edge(379, 838).
edge(379, 839).
edge(380, 831).
edge(380, 832).
edge(380, 833).
edge(380, 834).
edge(380, 835).
edge(380, 836).
edge(380, 837).
edge(380, 838).
edge(380, 839).
edge(380, 840).
edge(381, 832).
edge(381, 833).
edge(381, 834).
edge(381, 835).
edge(381, 836).
edge(381, 837).
edge(381, 838).
edge(381, 839).
edge(381, 840).
edge(381, 841).
edge(382, 833).
edge(382, 834).
edge(382, 835).
edge(382, 836).
edge(382, 837).
edge(382, 838).
edge(382, 839).
edge(382, 840).
edge(382, 841).
edge(382, 842).
edge(383, 834).
edge(383, 835).
edge(383, 836).
edge(383, 837).
edge(383, 838).
edge(383, 839).
edge(383, 840).
edge(383, 841).
edge(383, 842).
edge(383, 843).
edge(384, 835).
edge(384, 836).
edge(384, 837).
edge(384, 838).
edge(384, 839).
edge(384, 840).
edge(384, 841).
edge(384, 842).
edge(384, 843).
edge(384, 844).
edge(385, 836).
edge(385, 837).
edge(385, 838).
edge(385, 839).
edge(385, 840).
edge(385, 841).
edge(385, 842).
edge(385, 843).
edge(385, 844).
edge(385, 845).
edge(386, 837).
edge(386, 838).
edge(386, 839).
edge(386, 840).
edge(386, 841).
edge(386, 842).
edge(386, 843).
edge(386, 844).
edge(386, 845).
edge(386, 846).
edge(387, 838).
edge(387, 839).
edge(387, 840).
edge(387, 841).
edge(387, 842).
edge(387, 843).
edge(387, 844).
edge(387, 845).
edge(387, 846).
edge(387, 847).
edge(388, 839).
edge(388, 840).
edge(388, 841).
edge(388, 842).
edge(388, 843).
edge(388, 844).
edge(388, 845).
edge(388, 846).
edge(388, 847).
edge(388, 848).
edge(389, 840).
edge(389, 841).
edge(389, 842).
edge(389, 843).
edge(389, 844).
edge(389, 845).
edge(389, 846).
edge(389, 847).
edge(389, 848).
edge(389, 849).
edge(390, 841).
edge(390, 842).
edge(390, 843).
edge(390, 844).
edge(390, 845).
edge(390, 846).
edge(390, 847).
edge(390, 848).
edge(390, 849).
edge(390, 850).
edge(391, 842).
edge(391, 843).
edge(391, 844).
edge(391, 845).
edge(391, 846).
edge(391, 847).
edge(391, 848).
edge(391, 849).
edge(391, 850).
edge(391, 851).
edge(392, 843).
edge(392, 844).
edge(392, 845).
edge(392, 846).
edge(392, 847).
edge(392, 848).
edge(392, 849).
edge(392, 850).
edge(392, 851).
edge(392, 852).
edge(393, 844).
edge(393, 845).
edge(393, 846).
edge(393, 847).
edge(393, 848).
edge(393, 849).
edge(393, 850).
edge(393, 851).
edge(393, 852).
edge(393, 853).
edge(394, 845).
edge(394, 846).
edge(394, 847).
edge(394, 848).
edge(394, 849).
edge(394, 850).
edge(394, 851).
edge(394, 852).
edge(394, 853).
edge(394, 854).
edge(395, 846).
edge(395, 847).
edge(395, 848).
edge(395, 849).
edge(395, 850).
edge(395, 851).
edge(395, 852).
edge(395, 853).
edge(395, 854).
edge(395, 855).
edge(396, 847).
edge(396, 848).
edge(396, 849).
edge(396, 850).
edge(396, 851).
edge(396, 852).
edge(396, 853).
edge(396, 854).
edge(396, 855).
edge(396, 856).
edge(397, 848).
edge(397, 849).
edge(397, 850).
edge(397, 851).
edge(397, 852).
edge(397, 853).
edge(397, 854).
edge(397, 855).
edge(397, 856).
edge(397, 857).
edge(398, 849).
edge(398, 850).
edge(398, 851).
edge(398, 852).
edge(398, 853).
edge(398, 854).
edge(398, 855).
edge(398, 856).
edge(398, 857).
edge(398, 858).
edge(399, 850).
edge(399, 851).
edge(399, 852).
edge(399, 853).
edge(399, 854).
edge(399, 855).
edge(399, 856).
edge(399, 857).
edge(399, 858).
edge(399, 859).
edge(400, 851).
edge(400, 852).
edge(400, 853).
edge(400, 854).
edge(400, 855).
edge(400, 856).
edge(400, 857).
edge(400, 858).
edge(400, 859).
edge(400, 860).
edge(401, 852).
edge(401, 853).
edge(401, 854).
edge(401, 855).
edge(401, 856).
edge(401, 857).
edge(401, 858).
edge(401, 859).
edge(401, 860).
edge(401, 861).
edge(402, 853).
edge(402, 854).
edge(402, 855).
edge(402, 856).
edge(402, 857).
edge(402, 858).
edge(402, 859).
edge(402, 860).
edge(402, 861).
edge(402, 862).
edge(403, 854).
edge(403, 855).
edge(403, 856).
edge(403, 857).
edge(403, 858).
edge(403, 859).
edge(403, 860).
edge(403, 861).
edge(403, 862).
edge(403, 863).
edge(404, 855).
edge(404, 856).
edge(404, 857).
edge(404, 858).
edge(404, 859).
edge(404, 860).
edge(404, 861).
edge(404, 862).
edge(404, 863).
edge(404, 864).
edge(405, 856).
edge(405, 857).
edge(405, 858).
edge(405, 859).
edge(405, 860).
edge(405, 861).
edge(405, 862).
edge(405, 863).
edge(405, 864).
edge(405, 865).
edge(406, 857).
edge(406, 858).
edge(406, 859).
edge(406, 860).
edge(406, 861).
edge(406, 862).
edge(406, 863).
edge(406, 864).
edge(406, 865).
edge(406, 866).
edge(407, 858).
edge(407, 859).
edge(407, 860).
edge(407, 861).
edge(407, 862).
edge(407, 863).
edge(407, 864).
edge(407, 865).
edge(407, 866).
edge(407, 867).
edge(408, 859).
edge(408, 860).
edge(408, 861).
edge(408, 862).
edge(408, 863).
edge(408, 864).
edge(408, 865).
edge(408, 866).
edge(408, 867).
edge(408, 868).
edge(409, 860).
edge(409, 861).
edge(409, 862).
edge(409, 863).
edge(409, 864).
edge(409, 865).
edge(409, 866).
edge(409, 867).
edge(409, 868).
edge(409, 869).
edge(410, 861).
edge(410, 862).
edge(410, 863).
edge(410, 864).
edge(410, 865).
edge(410, 866).
edge(410, 867).
edge(410, 868).
edge(410, 869).
edge(410, 870).
edge(411, 862).
edge(411, 863).
edge(411, 864).
edge(411, 865).
edge(411, 866).
edge(411, 867).
edge(411, 868).
edge(411, 869).
edge(411, 870).
edge(411, 871).
edge(412, 863).
edge(412, 864).
edge(412, 865).
edge(412, 866).
edge(412, 867).
edge(412, 868).
edge(412, 869).
edge(412, 870).
edge(412, 871).
edge(412, 872).
edge(413, 864).
edge(413, 865).
edge(413, 866).
edge(413, 867).
edge(413, 868).
edge(413, 869).
edge(413, 870).
edge(413, 871).
edge(413, 872).
edge(413, 873).
edge(414, 865).
edge(414, 866).
edge(414, 867).
edge(414, 868).
edge(414, 869).
edge(414, 870).
edge(414, 871).
edge(414, 872).
edge(414, 873).
edge(414, 874).
edge(415, 866).
edge(415, 867).
edge(415, 868).
edge(415, 869).
edge(415, 870).
edge(415, 871).
edge(415, 872).
edge(415, 873).
edge(415, 874).
edge(415, 875).
edge(416, 867).
edge(416, 868).
edge(416, 869).
edge(416, 870).
edge(416, 871).
edge(416, 872).
edge(416, 873).
edge(416, 874).
edge(416, 875).
edge(416, 876).
edge(417, 868).
edge(417, 869).
edge(417, 870).
edge(417, 871).
edge(417, 872).
edge(417, 873).
edge(417, 874).
edge(417, 875).
edge(417, 876).
edge(417, 877).
edge(418, 869).
edge(418, 870).
edge(418, 871).
edge(418, 872).
edge(418, 873).
edge(418, 874).
edge(418, 875).
edge(418, 876).
edge(418, 877).
edge(418, 878).
edge(419, 870).
edge(419, 871).
edge(419, 872).
edge(419, 873).
edge(419, 874).
edge(419, 875).
edge(419, 876).
edge(419, 877).
edge(419, 878).
edge(419, 879).
edge(420, 871).
edge(420, 872).
edge(420, 873).
edge(420, 874).
edge(420, 875).
edge(420, 876).
edge(420, 877).
edge(420, 878).
edge(420, 879).
edge(420, 880).
edge(421, 872).
edge(421, 873).
edge(421, 874).
edge(421, 875).
edge(421, 876).
edge(421, 877).
edge(421, 878).
edge(421, 879).
edge(421, 880).
edge(421, 881).
edge(422, 873).
edge(422, 874).
edge(422, 875).
edge(422, 876).
edge(422, 877).
edge(422, 878).
edge(422, 879).
edge(422, 880).
edge(422, 881).
edge(422, 882).
edge(423, 874).
edge(423, 875).
edge(423, 876).
edge(423, 877).
edge(423, 878).
edge(423, 879).
edge(423, 880).
edge(423, 881).
edge(423, 882).
edge(423, 883).
edge(424, 875).
edge(424, 876).
edge(424, 877).
edge(424, 878).
edge(424, 879).
edge(424, 880).
edge(424, 881).
edge(424, 882).
edge(424, 883).
edge(424, 884).
edge(425, 876).
edge(425, 877).
edge(425, 878).
edge(425, 879).
edge(425, 880).
edge(425, 881).
edge(425, 882).
edge(425, 883).
edge(425, 884).
edge(425, 885).
edge(426, 877).
edge(426, 878).
edge(426, 879).
edge(426, 880).
edge(426, 881).
edge(426, 882).
edge(426, 883).
edge(426, 884).
edge(426, 885).
edge(426, 886).
edge(427, 878).
edge(427, 879).
edge(427, 880).
edge(427, 881).
edge(427, 882).
edge(427, 883).
edge(427, 884).
edge(427, 885).
edge(427, 886).
edge(427, 887).
edge(428, 879).
edge(428, 880).
edge(428, 881).
edge(428, 882).
edge(428, 883).
edge(428, 884).
edge(428, 885).
edge(428, 886).
edge(428, 887).
edge(428, 888).
edge(429, 880).
edge(429, 881).
edge(429, 882).
edge(429, 883).
edge(429, 884).
edge(429, 885).
edge(429, 886).
edge(429, 887).
edge(429, 888).
edge(429, 889).
edge(430, 881).
edge(430, 882).
edge(430, 883).
edge(430, 884).
edge(430, 885).
edge(430, 886).
edge(430, 887).
edge(430, 888).
edge(430, 889).
edge(430, 890).
edge(431, 882).
edge(431, 883).
edge(431, 884).
edge(431, 885).
edge(431, 886).
edge(431, 887).
edge(431, 888).
edge(431, 889).
edge(431, 890).
edge(431, 891).
edge(432, 883).
edge(432, 884).
edge(432, 885).
edge(432, 886).
edge(432, 887).
edge(432, 888).
edge(432, 889).
edge(432, 890).
edge(432, 891).
edge(432, 892).
edge(433, 884).
edge(433, 885).
edge(433, 886).
edge(433, 887).
edge(433, 888).
edge(433, 889).
edge(433, 890).
edge(433, 891).
edge(433, 892).
edge(433, 893).
edge(434, 885).
edge(434, 886).
edge(434, 887).
edge(434, 888).
edge(434, 889).
edge(434, 890).
edge(434, 891).
edge(434, 892).
edge(434, 893).
edge(434, 894).
edge(435, 886).
edge(435, 887).
edge(435, 888).
edge(435, 889).
edge(435, 890).
edge(435, 891).
edge(435, 892).
edge(435, 893).
edge(435, 894).
edge(435, 895).
edge(436, 887).
edge(436, 888).
edge(436, 889).
edge(436, 890).
edge(436, 891).
edge(436, 892).
edge(436, 893).
edge(436, 894).
edge(436, 895).
edge(436, 896).
edge(437, 888).
edge(437, 889).
edge(437, 890).
edge(437, 891).
edge(437, 892).
edge(437, 893).
edge(437, 894).
edge(437, 895).
edge(437, 896).
edge(437, 897).
edge(438, 889).
edge(438, 890).
edge(438, 891).
edge(438, 892).
edge(438, 893).
edge(438, 894).
edge(438, 895).
edge(438, 896).
edge(438, 897).
edge(438, 898).
edge(439, 890).
edge(439, 891).
edge(439, 892).
edge(439, 893).
edge(439, 894).
edge(439, 895).
edge(439, 896).
edge(439, 897).
edge(439, 898).
edge(439, 899).
edge(440, 891).
edge(440, 892).
edge(440, 893).
edge(440, 894).
edge(440, 895).
edge(440, 896).
edge(440, 897).
edge(440, 898).
edge(440, 899).
edge(440, 900).
edge(441, 892).
edge(441, 893).
edge(441, 894).
edge(441, 895).
edge(441, 896).
edge(441, 897).
edge(441, 898).
edge(441, 899).
edge(441, 900).
edge(441, 451).
edge(442, 893).
edge(442, 894).
edge(442, 895).
edge(442, 896).
edge(442, 897).
edge(442, 898).
edge(442, 899).
edge(442, 900).
edge(442, 451).
edge(442, 452).
edge(443, 894).
edge(443, 895).
edge(443, 896).
edge(443, 897).
edge(443, 898).
edge(443, 899).
edge(443, 900).
edge(443, 451).
edge(443, 452).
edge(443, 453).
edge(444, 895).
edge(444, 896).
edge(444, 897).
edge(444, 898).
edge(444, 899).
edge(444, 900).
edge(444, 451).
edge(444, 452).
edge(444, 453).
edge(444, 454).
edge(445, 896).
edge(445, 897).
edge(445, 898).
edge(445, 899).
edge(445, 900).
edge(445, 451).
edge(445, 452).
edge(445, 453).
edge(445, 454).
edge(445, 455).
edge(446, 897).
edge(446, 898).
edge(446, 899).
edge(446, 900).
edge(446, 451).
edge(446, 452).
edge(446, 453).
edge(446, 454).
edge(446, 455).
edge(446, 456).
edge(447, 898).
edge(447, 899).
edge(447, 900).
edge(447, 451).
edge(447, 452).
edge(447, 453).
edge(447, 454).
edge(447, 455).
edge(447, 456).
edge(447, 457).
edge(448, 899).
edge(448, 900).
edge(448, 451).
edge(448, 452).
edge(448, 453).
edge(448, 454).
edge(448, 455).
edge(448, 456).
edge(448, 457).
edge(448, 458).
edge(449, 900).
edge(449, 451).
edge(449, 452).
edge(449, 453).
edge(449, 454).
edge(449, 455).
edge(449, 456).
edge(449, 457).
edge(449, 458).
edge(449, 459).
edge(450, 451).
edge(450, 452).
edge(450, 453).
edge(450, 454).
edge(450, 455).
edge(450, 456).
edge(450, 457).
edge(450, 458).
edge(450, 459).
edge(450, 460).
