edge(1, 22).
edge(1, 23).
edge(1, 24).
edge(1, 25).
edge(1, 26).
edge(1, 27).
edge(1, 28).
edge(1, 29).
edge(1, 30).
edge(1, 31).
edge(2, 23).
edge(2, 24).
edge(2, 25).
edge(2, 26).
edge(2, 27).
edge(2, 28).
edge(2, 29).
edge(2, 30).
edge(2, 31).
edge(2, 32).
edge(3, 24).
edge(3, 25).
edge(3, 26).
edge(3, 27).
edge(3, 28).
edge(3, 29).
edge(3, 30).
edge(3, 31).
edge(3, 32).
edge(3, 33).
edge(4, 25).
edge(4, 26).
edge(4, 27).
edge(4, 28).
edge(4, 29).
edge(4, 30).
edge(4, 31).
edge(4, 32).
edge(4, 33).
edge(4, 34).
edge(5, 26).
edge(5, 27).
edge(5, 28).
edge(5, 29).
edge(5, 30).
edge(5, 31).
edge(5, 32).
edge(5, 33).
edge(5, 34).
edge(5, 35).
edge(6, 27).
edge(6, 28).
edge(6, 29).
edge(6, 30).
edge(6, 31).
edge(6, 32).
edge(6, 33).
edge(6, 34).
edge(6, 35).
edge(6, 36).
edge(7, 28).
edge(7, 29).
edge(7, 30).
edge(7, 31).
edge(7, 32).
edge(7, 33).
edge(7, 34).
edge(7, 35).
edge(7, 36).
edge(7, 37).
edge(8, 29).
edge(8, 30).
edge(8, 31).
edge(8, 32).
edge(8, 33).
edge(8, 34).
edge(8, 35).
edge(8, 36).
edge(8, 37).
edge(8, 38).
edge(9, 30).
edge(9, 31).
edge(9, 32).
edge(9, 33).
edge(9, 34).
edge(9, 35).
edge(9, 36).
edge(9, 37).
edge(9, 38).
edge(9, 39).
edge(10, 31).
edge(10, 32).
edge(10, 33).
edge(10, 34).
edge(10, 35).
edge(10, 36).
edge(10, 37).
edge(10, 38).
edge(10, 39).
edge(10, 40).
edge(11, 32).
edge(11, 33).
edge(11, 34).
edge(11, 35).
edge(11, 36).
edge(11, 37).
edge(11, 38).
edge(11, 39).
edge(11, 40).
edge(11, 21).
edge(12, 33).
edge(12, 34).
edge(12, 35).
edge(12, 36).
edge(12, 37).
edge(12, 38).
edge(12, 39).
edge(12, 40).
edge(12, 21).
edge(12, 22).
edge(13, 34).
edge(13, 35).
edge(13, 36).
edge(13, 37).
edge(13, 38).
edge(13, 39).
edge(13, 40).
edge(13, 21).
edge(13, 22).
edge(13, 23).
edge(14, 35).
edge(14, 36).
edge(14, 37).
edge(14, 38).
edge(14, 39).
edge(14, 40).
edge(14, 21).
edge(14, 22).
edge(14, 23).
edge(14, 24).
edge(15, 36).
edge(15, 37).
edge(15, 38).
edge(15, 39).
edge(15, 40).
edge(15, 21).
edge(15, 22).
edge(15, 23).
edge(15, 24).
edge(15, 25).
edge(16, 37).
edge(16, 38).
edge(16, 39).
edge(16, 40).
edge(16, 21).
edge(16, 22).
edge(16, 23).
edge(16, 24).
edge(16, 25).
edge(16, 26).
edge(17, 38).
edge(17, 39).
edge(17, 40).
edge(17, 21).
edge(17, 22).
edge(17, 23).
edge(17, 24).
edge(17, 25).
edge(17, 26).
edge(17, 27).
edge(18, 39).
edge(18, 40).
edge(18, 21).
edge(18, 22).
edge(18, 23).
edge(18, 24).
edge(18, 25).
edge(18, 26).
edge(18, 27).
edge(18, 28).
edge(19, 40).
edge(19, 21).
edge(19, 22).
edge(19, 23).
edge(19, 24).
edge(19, 25).
edge(19, 26).
edge(19, 27).
edge(19, 28).
edge(19, 29).
edge(20, 21).
edge(20, 22).
edge(20, 23).
edge(20, 24).
edge(20, 25).
edge(20, 26).
edge(20, 27).
edge(20, 28).
edge(20, 29).
edge(20, 30).
