edge(1, 12).
edge(1, 13).
edge(1, 14).
edge(1, 15).
edge(1, 16).
edge(1, 17).
edge(1, 18).
edge(1, 19).
edge(1, 20).
edge(1, 11).
edge(2, 13).
edge(2, 14).
edge(2, 15).
edge(2, 16).
edge(2, 17).
edge(2, 18).
edge(2, 19).
edge(2, 20).
edge(2, 11).
edge(2, 12).
edge(3, 14).
edge(3, 15).
edge(3, 16).
edge(3, 17).
edge(3, 18).
edge(3, 19).
edge(3, 20).
edge(3, 11).
edge(3, 12).
edge(3, 13).
edge(4, 15).
edge(4, 16).
edge(4, 17).
edge(4, 18).
edge(4, 19).
edge(4, 20).
edge(4, 11).
edge(4, 12).
edge(4, 13).
edge(4, 14).
edge(5, 16).
edge(5, 17).
edge(5, 18).
edge(5, 19).
edge(5, 20).
edge(5, 11).
edge(5, 12).
edge(5, 13).
edge(5, 14).
edge(5, 15).
edge(6, 17).
edge(6, 18).
edge(6, 19).
edge(6, 20).
edge(6, 11).
edge(6, 12).
edge(6, 13).
edge(6, 14).
edge(6, 15).
edge(6, 16).
edge(7, 18).
edge(7, 19).
edge(7, 20).
edge(7, 11).
edge(7, 12).
edge(7, 13).
edge(7, 14).
edge(7, 15).
edge(7, 16).
edge(7, 17).
edge(8, 19).
edge(8, 20).
edge(8, 11).
edge(8, 12).
edge(8, 13).
edge(8, 14).
edge(8, 15).
edge(8, 16).
edge(8, 17).
edge(8, 18).
edge(9, 20).
edge(9, 11).
edge(9, 12).
edge(9, 13).
edge(9, 14).
edge(9, 15).
edge(9, 16).
edge(9, 17).
edge(9, 18).
edge(9, 19).
edge(10, 11).
edge(10, 12).
edge(10, 13).
edge(10, 14).
edge(10, 15).
edge(10, 16).
edge(10, 17).
edge(10, 18).
edge(10, 19).
edge(10, 20).
