edge(1, 32).
edge(1, 33).
edge(1, 34).
edge(1, 35).
edge(1, 36).
edge(1, 37).
edge(1, 38).
edge(1, 39).
edge(1, 40).
edge(1, 41).
edge(2, 33).
edge(2, 34).
edge(2, 35).
edge(2, 36).
edge(2, 37).
edge(2, 38).
edge(2, 39).
edge(2, 40).
edge(2, 41).
edge(2, 42).
edge(3, 34).
edge(3, 35).
edge(3, 36).
edge(3, 37).
edge(3, 38).
edge(3, 39).
edge(3, 40).
edge(3, 41).
edge(3, 42).
edge(3, 43).
edge(4, 35).
edge(4, 36).
edge(4, 37).
edge(4, 38).
edge(4, 39).
edge(4, 40).
edge(4, 41).
edge(4, 42).
edge(4, 43).
edge(4, 44).
edge(5, 36).
edge(5, 37).
edge(5, 38).
edge(5, 39).
edge(5, 40).
edge(5, 41).
edge(5, 42).
edge(5, 43).
edge(5, 44).
edge(5, 45).
edge(6, 37).
edge(6, 38).
edge(6, 39).
edge(6, 40).
edge(6, 41).
edge(6, 42).
edge(6, 43).
edge(6, 44).
edge(6, 45).
edge(6, 46).
edge(7, 38).
edge(7, 39).
edge(7, 40).
edge(7, 41).
edge(7, 42).
edge(7, 43).
edge(7, 44).
edge(7, 45).
edge(7, 46).
edge(7, 47).
edge(8, 39).
edge(8, 40).
edge(8, 41).
edge(8, 42).
edge(8, 43).
edge(8, 44).
edge(8, 45).
edge(8, 46).
edge(8, 47).
edge(8, 48).
edge(9, 40).
edge(9, 41).
edge(9, 42).
edge(9, 43).
edge(9, 44).
edge(9, 45).
edge(9, 46).
edge(9, 47).
edge(9, 48).
edge(9, 49).
edge(10, 41).
edge(10, 42).
edge(10, 43).
edge(10, 44).
edge(10, 45).
edge(10, 46).
edge(10, 47).
edge(10, 48).
edge(10, 49).
edge(10, 50).
edge(11, 42).
edge(11, 43).
edge(11, 44).
edge(11, 45).
edge(11, 46).
edge(11, 47).
edge(11, 48).
edge(11, 49).
edge(11, 50).
edge(11, 51).
edge(12, 43).
edge(12, 44).
edge(12, 45).
edge(12, 46).
edge(12, 47).
edge(12, 48).
edge(12, 49).
edge(12, 50).
edge(12, 51).
edge(12, 52).
edge(13, 44).
edge(13, 45).
edge(13, 46).
edge(13, 47).
edge(13, 48).
edge(13, 49).
edge(13, 50).
edge(13, 51).
edge(13, 52).
edge(13, 53).
edge(14, 45).
edge(14, 46).
edge(14, 47).
edge(14, 48).
edge(14, 49).
edge(14, 50).
edge(14, 51).
edge(14, 52).
edge(14, 53).
edge(14, 54).
edge(15, 46).
edge(15, 47).
edge(15, 48).
edge(15, 49).
edge(15, 50).
edge(15, 51).
edge(15, 52).
edge(15, 53).
edge(15, 54).
edge(15, 55).
edge(16, 47).
edge(16, 48).
edge(16, 49).
edge(16, 50).
edge(16, 51).
edge(16, 52).
edge(16, 53).
edge(16, 54).
edge(16, 55).
edge(16, 56).
edge(17, 48).
edge(17, 49).
edge(17, 50).
edge(17, 51).
edge(17, 52).
edge(17, 53).
edge(17, 54).
edge(17, 55).
edge(17, 56).
edge(17, 57).
edge(18, 49).
edge(18, 50).
edge(18, 51).
edge(18, 52).
edge(18, 53).
edge(18, 54).
edge(18, 55).
edge(18, 56).
edge(18, 57).
edge(18, 58).
edge(19, 50).
edge(19, 51).
edge(19, 52).
edge(19, 53).
edge(19, 54).
edge(19, 55).
edge(19, 56).
edge(19, 57).
edge(19, 58).
edge(19, 59).
edge(20, 51).
edge(20, 52).
edge(20, 53).
edge(20, 54).
edge(20, 55).
edge(20, 56).
edge(20, 57).
edge(20, 58).
edge(20, 59).
edge(20, 60).
edge(21, 52).
edge(21, 53).
edge(21, 54).
edge(21, 55).
edge(21, 56).
edge(21, 57).
edge(21, 58).
edge(21, 59).
edge(21, 60).
edge(21, 31).
edge(22, 53).
edge(22, 54).
edge(22, 55).
edge(22, 56).
edge(22, 57).
edge(22, 58).
edge(22, 59).
edge(22, 60).
edge(22, 31).
edge(22, 32).
edge(23, 54).
edge(23, 55).
edge(23, 56).
edge(23, 57).
edge(23, 58).
edge(23, 59).
edge(23, 60).
edge(23, 31).
edge(23, 32).
edge(23, 33).
edge(24, 55).
edge(24, 56).
edge(24, 57).
edge(24, 58).
edge(24, 59).
edge(24, 60).
edge(24, 31).
edge(24, 32).
edge(24, 33).
edge(24, 34).
edge(25, 56).
edge(25, 57).
edge(25, 58).
edge(25, 59).
edge(25, 60).
edge(25, 31).
edge(25, 32).
edge(25, 33).
edge(25, 34).
edge(25, 35).
edge(26, 57).
edge(26, 58).
edge(26, 59).
edge(26, 60).
edge(26, 31).
edge(26, 32).
edge(26, 33).
edge(26, 34).
edge(26, 35).
edge(26, 36).
edge(27, 58).
edge(27, 59).
edge(27, 60).
edge(27, 31).
edge(27, 32).
edge(27, 33).
edge(27, 34).
edge(27, 35).
edge(27, 36).
edge(27, 37).
edge(28, 59).
edge(28, 60).
edge(28, 31).
edge(28, 32).
edge(28, 33).
edge(28, 34).
edge(28, 35).
edge(28, 36).
edge(28, 37).
edge(28, 38).
edge(29, 60).
edge(29, 31).
edge(29, 32).
edge(29, 33).
edge(29, 34).
edge(29, 35).
edge(29, 36).
edge(29, 37).
edge(29, 38).
edge(29, 39).
edge(30, 31).
edge(30, 32).
edge(30, 33).
edge(30, 34).
edge(30, 35).
edge(30, 36).
edge(30, 37).
edge(30, 38).
edge(30, 39).
edge(30, 40).
