edge(1, 11).
edge(2, 12).
edge(3, 13).
edge(4, 14).
edge(5, 15).
edge(6, 16).
edge(7, 17).
edge(8, 18).
edge(9, 19).
edge(10, 20).
edge(11, 21).
edge(12, 22).
edge(13, 23).
edge(14, 24).
edge(15, 25).
edge(16, 26).
edge(17, 27).
edge(18, 28).
edge(19, 29).
edge(20, 30).
edge(21, 31).
edge(22, 32).
edge(23, 33).
edge(24, 34).
edge(25, 35).
edge(26, 36).
edge(27, 37).
edge(28, 38).
edge(29, 39).
edge(30, 40).
edge(31, 41).
edge(32, 42).
edge(33, 43).
edge(34, 44).
edge(35, 45).
edge(36, 46).
edge(37, 47).
edge(38, 48).
edge(39, 49).
edge(40, 50).
edge(41, 51).
edge(42, 52).
edge(43, 53).
edge(44, 54).
edge(45, 55).
edge(46, 56).
edge(47, 57).
edge(48, 58).
edge(49, 59).
edge(50, 60).
edge(51, 61).
edge(52, 62).
edge(53, 63).
edge(54, 64).
edge(55, 65).
edge(56, 66).
edge(57, 67).
edge(58, 68).
edge(59, 69).
edge(60, 70).
edge(61, 71).
edge(62, 72).
edge(63, 73).
edge(64, 74).
edge(65, 75).
edge(66, 76).
edge(67, 77).
edge(68, 78).
edge(69, 79).
edge(70, 80).
edge(71, 81).
edge(72, 82).
edge(73, 83).
edge(74, 84).
edge(75, 85).
edge(76, 86).
edge(77, 87).
edge(78, 88).
edge(79, 89).
edge(80, 90).
edge(81, 91).
edge(82, 92).
edge(83, 93).
edge(84, 94).
edge(85, 95).
edge(86, 96).
edge(87, 97).
edge(88, 98).
edge(89, 99).
edge(90, 100).
edge(91, 101).
edge(92, 102).
edge(93, 103).
edge(94, 104).
edge(95, 105).
edge(96, 106).
edge(97, 107).
edge(98, 108).
edge(99, 109).
edge(100, 110).
edge(101, 111).
edge(102, 112).
edge(103, 113).
edge(104, 114).
edge(105, 115).
edge(106, 116).
edge(107, 117).
edge(108, 118).
edge(109, 119).
edge(110, 120).
edge(111, 121).
edge(112, 122).
edge(113, 123).
edge(114, 124).
edge(115, 125).
edge(116, 126).
edge(117, 127).
edge(118, 128).
edge(119, 129).
edge(120, 130).
edge(121, 131).
edge(122, 132).
edge(123, 133).
edge(124, 134).
edge(125, 135).
edge(126, 136).
edge(127, 137).
edge(128, 138).
edge(129, 139).
edge(130, 140).
edge(131, 141).
edge(132, 142).
edge(133, 143).
edge(134, 144).
edge(135, 145).
edge(136, 146).
edge(137, 147).
edge(138, 148).
edge(139, 149).
edge(140, 150).
edge(141, 151).
edge(142, 152).
edge(143, 153).
edge(144, 154).
edge(145, 155).
edge(146, 156).
edge(147, 157).
edge(148, 158).
edge(149, 159).
edge(150, 160).
edge(151, 161).
edge(152, 162).
edge(153, 163).
edge(154, 164).
edge(155, 165).
edge(156, 166).
edge(157, 167).
edge(158, 168).
edge(159, 169).
edge(160, 170).
edge(161, 171).
edge(162, 172).
edge(163, 173).
edge(164, 174).
edge(165, 175).
edge(166, 176).
edge(167, 177).
edge(168, 178).
edge(169, 179).
edge(170, 180).
edge(171, 181).
edge(172, 182).
edge(173, 183).
edge(174, 184).
edge(175, 185).
edge(176, 186).
edge(177, 187).
edge(178, 188).
edge(179, 189).
edge(180, 190).
edge(181, 191).
edge(182, 192).
edge(183, 193).
edge(184, 194).
edge(185, 195).
edge(186, 196).
edge(187, 197).
edge(188, 198).
edge(189, 199).
edge(190, 200).
edge(191, 201).
edge(192, 202).
edge(193, 203).
edge(194, 204).
edge(195, 205).
edge(196, 206).
edge(197, 207).
edge(198, 208).
edge(199, 209).
edge(200, 210).
edge(201, 211).
edge(202, 212).
edge(203, 213).
edge(204, 214).
edge(205, 215).
edge(206, 216).
edge(207, 217).
edge(208, 218).
edge(209, 219).
edge(210, 220).
edge(211, 221).
edge(212, 222).
edge(213, 223).
edge(214, 224).
edge(215, 225).
edge(216, 226).
edge(217, 227).
edge(218, 228).
edge(219, 229).
edge(220, 230).
edge(221, 231).
edge(222, 232).
edge(223, 233).
edge(224, 234).
edge(225, 235).
edge(226, 236).
edge(227, 237).
edge(228, 238).
edge(229, 239).
edge(230, 240).
edge(231, 241).
edge(232, 242).
edge(233, 243).
edge(234, 244).
edge(235, 245).
edge(236, 246).
edge(237, 247).
edge(238, 248).
edge(239, 249).
edge(240, 250).
edge(241, 251).
edge(242, 252).
edge(243, 253).
edge(244, 254).
edge(245, 255).
edge(246, 256).
edge(247, 257).
edge(248, 258).
edge(249, 259).
edge(250, 260).
edge(251, 261).
edge(252, 262).
edge(253, 263).
edge(254, 264).
edge(255, 265).
edge(256, 266).
edge(257, 267).
edge(258, 268).
edge(259, 269).
edge(260, 270).
edge(261, 271).
edge(262, 272).
edge(263, 273).
edge(264, 274).
edge(265, 275).
edge(266, 276).
edge(267, 277).
edge(268, 278).
edge(269, 279).
edge(270, 280).
edge(271, 281).
edge(272, 282).
edge(273, 283).
edge(274, 284).
edge(275, 285).
edge(276, 286).
edge(277, 287).
edge(278, 288).
edge(279, 289).
edge(280, 290).
edge(281, 291).
edge(282, 292).
edge(283, 293).
edge(284, 294).
edge(285, 295).
edge(286, 296).
edge(287, 297).
edge(288, 298).
edge(289, 299).
edge(290, 300).
