edge(1, 11).
edge(2, 12).
edge(3, 13).
edge(4, 14).
edge(5, 15).
edge(6, 16).
edge(7, 17).
edge(8, 18).
edge(9, 19).
edge(10, 20).
edge(11, 21).
edge(12, 22).
edge(13, 23).
edge(14, 24).
edge(15, 25).
edge(16, 26).
edge(17, 27).
edge(18, 28).
edge(19, 29).
edge(20, 30).
edge(21, 31).
edge(22, 32).
edge(23, 33).
edge(24, 34).
edge(25, 35).
edge(26, 36).
edge(27, 37).
edge(28, 38).
edge(29, 39).
edge(30, 40).
edge(31, 41).
edge(32, 42).
edge(33, 43).
edge(34, 44).
edge(35, 45).
edge(36, 46).
edge(37, 47).
edge(38, 48).
edge(39, 49).
edge(40, 50).
edge(41, 51).
edge(42, 52).
edge(43, 53).
edge(44, 54).
edge(45, 55).
edge(46, 56).
edge(47, 57).
edge(48, 58).
edge(49, 59).
edge(50, 60).
edge(51, 61).
edge(52, 62).
edge(53, 63).
edge(54, 64).
edge(55, 65).
edge(56, 66).
edge(57, 67).
edge(58, 68).
edge(59, 69).
edge(60, 70).
edge(61, 71).
edge(62, 72).
edge(63, 73).
edge(64, 74).
edge(65, 75).
edge(66, 76).
edge(67, 77).
edge(68, 78).
edge(69, 79).
edge(70, 80).
edge(71, 81).
edge(72, 82).
edge(73, 83).
edge(74, 84).
edge(75, 85).
edge(76, 86).
edge(77, 87).
edge(78, 88).
edge(79, 89).
edge(80, 90).
edge(81, 91).
edge(82, 92).
edge(83, 93).
edge(84, 94).
edge(85, 95).
edge(86, 96).
edge(87, 97).
edge(88, 98).
edge(89, 99).
edge(90, 100).
