edge(1, 451).
edge(2, 451).
edge(3, 451).
edge(4, 451).
edge(5, 451).
edge(6, 451).
edge(7, 451).
edge(8, 451).
edge(9, 451).
edge(10, 451).
edge(11, 451).
edge(12, 451).
edge(13, 451).
edge(14, 451).
edge(15, 451).
edge(16, 451).
edge(17, 451).
edge(18, 451).
edge(19, 451).
edge(20, 451).
edge(21, 451).
edge(22, 451).
edge(23, 451).
edge(24, 451).
edge(25, 451).
edge(26, 451).
edge(27, 451).
edge(28, 451).
edge(29, 451).
edge(30, 451).
edge(31, 451).
edge(32, 451).
edge(33, 451).
edge(34, 451).
edge(35, 451).
edge(36, 451).
edge(37, 451).
edge(38, 451).
edge(39, 451).
edge(40, 451).
edge(41, 451).
edge(42, 451).
edge(43, 451).
edge(44, 451).
edge(45, 451).
edge(46, 451).
edge(47, 451).
edge(48, 451).
edge(49, 451).
edge(50, 451).
edge(51, 451).
edge(52, 451).
edge(53, 451).
edge(54, 451).
edge(55, 451).
edge(56, 451).
edge(57, 451).
edge(58, 451).
edge(59, 451).
edge(60, 451).
edge(61, 451).
edge(62, 451).
edge(63, 451).
edge(64, 451).
edge(65, 451).
edge(66, 451).
edge(67, 451).
edge(68, 451).
edge(69, 451).
edge(70, 451).
edge(71, 451).
edge(72, 451).
edge(73, 451).
edge(74, 451).
edge(75, 451).
edge(76, 451).
edge(77, 451).
edge(78, 451).
edge(79, 451).
edge(80, 451).
edge(81, 451).
edge(82, 451).
edge(83, 451).
edge(84, 451).
edge(85, 451).
edge(86, 451).
edge(87, 451).
edge(88, 451).
edge(89, 451).
edge(90, 451).
edge(91, 451).
edge(92, 451).
edge(93, 451).
edge(94, 451).
edge(95, 451).
edge(96, 451).
edge(97, 451).
edge(98, 451).
edge(99, 451).
edge(100, 451).
edge(101, 451).
edge(102, 451).
edge(103, 451).
edge(104, 451).
edge(105, 451).
edge(106, 451).
edge(107, 451).
edge(108, 451).
edge(109, 451).
edge(110, 451).
edge(111, 451).
edge(112, 451).
edge(113, 451).
edge(114, 451).
edge(115, 451).
edge(116, 451).
edge(117, 451).
edge(118, 451).
edge(119, 451).
edge(120, 451).
edge(121, 451).
edge(122, 451).
edge(123, 451).
edge(124, 451).
edge(125, 451).
edge(126, 451).
edge(127, 451).
edge(128, 451).
edge(129, 451).
edge(130, 451).
edge(131, 451).
edge(132, 451).
edge(133, 451).
edge(134, 451).
edge(135, 451).
edge(136, 451).
edge(137, 451).
edge(138, 451).
edge(139, 451).
edge(140, 451).
edge(141, 451).
edge(142, 451).
edge(143, 451).
edge(144, 451).
edge(145, 451).
edge(146, 451).
edge(147, 451).
edge(148, 451).
edge(149, 451).
edge(150, 451).
edge(151, 451).
edge(152, 451).
edge(153, 451).
edge(154, 451).
edge(155, 451).
edge(156, 451).
edge(157, 451).
edge(158, 451).
edge(159, 451).
edge(160, 451).
edge(161, 451).
edge(162, 451).
edge(163, 451).
edge(164, 451).
edge(165, 451).
edge(166, 451).
edge(167, 451).
edge(168, 451).
edge(169, 451).
edge(170, 451).
edge(171, 451).
edge(172, 451).
edge(173, 451).
edge(174, 451).
edge(175, 451).
edge(176, 451).
edge(177, 451).
edge(178, 451).
edge(179, 451).
edge(180, 451).
edge(181, 451).
edge(182, 451).
edge(183, 451).
edge(184, 451).
edge(185, 451).
edge(186, 451).
edge(187, 451).
edge(188, 451).
edge(189, 451).
edge(190, 451).
edge(191, 451).
edge(192, 451).
edge(193, 451).
edge(194, 451).
edge(195, 451).
edge(196, 451).
edge(197, 451).
edge(198, 451).
edge(199, 451).
edge(200, 451).
edge(201, 451).
edge(202, 451).
edge(203, 451).
edge(204, 451).
edge(205, 451).
edge(206, 451).
edge(207, 451).
edge(208, 451).
edge(209, 451).
edge(210, 451).
edge(211, 451).
edge(212, 451).
edge(213, 451).
edge(214, 451).
edge(215, 451).
edge(216, 451).
edge(217, 451).
edge(218, 451).
edge(219, 451).
edge(220, 451).
edge(221, 451).
edge(222, 451).
edge(223, 451).
edge(224, 451).
edge(225, 451).
edge(226, 451).
edge(227, 451).
edge(228, 451).
edge(229, 451).
edge(230, 451).
edge(231, 451).
edge(232, 451).
edge(233, 451).
edge(234, 451).
edge(235, 451).
edge(236, 451).
edge(237, 451).
edge(238, 451).
edge(239, 451).
edge(240, 451).
edge(241, 451).
edge(242, 451).
edge(243, 451).
edge(244, 451).
edge(245, 451).
edge(246, 451).
edge(247, 451).
edge(248, 451).
edge(249, 451).
edge(250, 451).
edge(251, 451).
edge(252, 451).
edge(253, 451).
edge(254, 451).
edge(255, 451).
edge(256, 451).
edge(257, 451).
edge(258, 451).
edge(259, 451).
edge(260, 451).
edge(261, 451).
edge(262, 451).
edge(263, 451).
edge(264, 451).
edge(265, 451).
edge(266, 451).
edge(267, 451).
edge(268, 451).
edge(269, 451).
edge(270, 451).
edge(271, 451).
edge(272, 451).
edge(273, 451).
edge(274, 451).
edge(275, 451).
edge(276, 451).
edge(277, 451).
edge(278, 451).
edge(279, 451).
edge(280, 451).
edge(281, 451).
edge(282, 451).
edge(283, 451).
edge(284, 451).
edge(285, 451).
edge(286, 451).
edge(287, 451).
edge(288, 451).
edge(289, 451).
edge(290, 451).
edge(291, 451).
edge(292, 451).
edge(293, 451).
edge(294, 451).
edge(295, 451).
edge(296, 451).
edge(297, 451).
edge(298, 451).
edge(299, 451).
edge(300, 451).
edge(301, 451).
edge(302, 451).
edge(303, 451).
edge(304, 451).
edge(305, 451).
edge(306, 451).
edge(307, 451).
edge(308, 451).
edge(309, 451).
edge(310, 451).
edge(311, 451).
edge(312, 451).
edge(313, 451).
edge(314, 451).
edge(315, 451).
edge(316, 451).
edge(317, 451).
edge(318, 451).
edge(319, 451).
edge(320, 451).
edge(321, 451).
edge(322, 451).
edge(323, 451).
edge(324, 451).
edge(325, 451).
edge(326, 451).
edge(327, 451).
edge(328, 451).
edge(329, 451).
edge(330, 451).
edge(331, 451).
edge(332, 451).
edge(333, 451).
edge(334, 451).
edge(335, 451).
edge(336, 451).
edge(337, 451).
edge(338, 451).
edge(339, 451).
edge(340, 451).
edge(341, 451).
edge(342, 451).
edge(343, 451).
edge(344, 451).
edge(345, 451).
edge(346, 451).
edge(347, 451).
edge(348, 451).
edge(349, 451).
edge(350, 451).
edge(351, 451).
edge(352, 451).
edge(353, 451).
edge(354, 451).
edge(355, 451).
edge(356, 451).
edge(357, 451).
edge(358, 451).
edge(359, 451).
edge(360, 451).
edge(361, 451).
edge(362, 451).
edge(363, 451).
edge(364, 451).
edge(365, 451).
edge(366, 451).
edge(367, 451).
edge(368, 451).
edge(369, 451).
edge(370, 451).
edge(371, 451).
edge(372, 451).
edge(373, 451).
edge(374, 451).
edge(375, 451).
edge(376, 451).
edge(377, 451).
edge(378, 451).
edge(379, 451).
edge(380, 451).
edge(381, 451).
edge(382, 451).
edge(383, 451).
edge(384, 451).
edge(385, 451).
edge(386, 451).
edge(387, 451).
edge(388, 451).
edge(389, 451).
edge(390, 451).
edge(391, 451).
edge(392, 451).
edge(393, 451).
edge(394, 451).
edge(395, 451).
edge(396, 451).
edge(397, 451).
edge(398, 451).
edge(399, 451).
edge(400, 451).
edge(401, 451).
edge(402, 451).
edge(403, 451).
edge(404, 451).
edge(405, 451).
edge(406, 451).
edge(407, 451).
edge(408, 451).
edge(409, 451).
edge(410, 451).
edge(411, 451).
edge(412, 451).
edge(413, 451).
edge(414, 451).
edge(415, 451).
edge(416, 451).
edge(417, 451).
edge(418, 451).
edge(419, 451).
edge(420, 451).
edge(421, 451).
edge(422, 451).
edge(423, 451).
edge(424, 451).
edge(425, 451).
edge(426, 451).
edge(427, 451).
edge(428, 451).
edge(429, 451).
edge(430, 451).
edge(431, 451).
edge(432, 451).
edge(433, 451).
edge(434, 451).
edge(435, 451).
edge(436, 451).
edge(437, 451).
edge(438, 451).
edge(439, 451).
edge(440, 451).
edge(441, 451).
edge(442, 451).
edge(443, 451).
edge(444, 451).
edge(445, 451).
edge(446, 451).
edge(447, 451).
edge(448, 451).
edge(449, 451).
edge(450, 451).
edge(451, 452).
edge(452, 453).
edge(453, 454).
edge(454, 455).
edge(455, 456).
edge(456, 457).
edge(457, 458).
edge(458, 459).
edge(459, 460).
