edge(1, 31).
edge(2, 31).
edge(3, 31).
edge(4, 31).
edge(5, 31).
edge(6, 31).
edge(7, 31).
edge(8, 31).
edge(9, 31).
edge(10, 31).
edge(11, 31).
edge(12, 31).
edge(13, 31).
edge(14, 31).
edge(15, 31).
edge(16, 31).
edge(17, 31).
edge(18, 31).
edge(19, 31).
edge(20, 31).
edge(21, 31).
edge(22, 31).
edge(23, 31).
edge(24, 31).
edge(25, 31).
edge(26, 31).
edge(27, 31).
edge(28, 31).
edge(29, 31).
edge(30, 31).
edge(31, 32).
edge(32, 33).
edge(33, 34).
edge(34, 35).
edge(35, 36).
edge(36, 37).
edge(37, 38).
edge(38, 39).
edge(39, 40).
