edge(1, 2).
edge(1, 2).
edge(1, 1).
edge(1, 1).
edge(1, 1).
edge(1, 1).
edge(1, 25).
edge(2, 3).
edge(2, 2).
edge(3, 1).
edge(3, 1).
edge(3, 1).
edge(3, 1).
edge(3, 1).
edge(3, 2).
edge(3, 2).
edge(3, 2).
edge(3, 15).
edge(4, 1).
edge(4, 10).
edge(5, 1).
edge(5, 1).
edge(6, 1).
edge(6, 1).
edge(6, 1).
edge(6, 1).
edge(6, 1).
edge(6, 1).
edge(6, 1).
edge(6, 1).
edge(6, 10).
edge(6, 21).
edge(6, 25).
edge(6, 6).
edge(6, 37).
edge(6, 2).
edge(7, 2).
edge(8, 2).
edge(8, 2).
edge(8, 1).
edge(8, 21).
edge(8, 35).
edge(9, 2).
edge(11, 1).
edge(12, 10).
edge(12, 2).
edge(13, 2).
edge(14, 6).
edge(14, 10).
edge(14, 37).
edge(15, 15).
edge(16, 10).
edge(17, 10).
edge(18, 1).
edge(18, 2).
edge(19, 10).
edge(19, 1).
edge(20, 2).
edge(22, 10).
edge(22, 27).
edge(22, 1).
edge(22, 15).
edge(23, 1).
edge(24, 10).
edge(26, 21).
edge(28, 10).
edge(29, 1).
edge(30, 2).
edge(31, 21).
edge(31, 1).
edge(31, 2).
edge(32, 3).
edge(33, 1).
edge(34, 2).
edge(36, 1).
edge(38, 35).
edge(39, 1).
edge(40, 2).
