edge(1, 2).
edge(1, 2).
edge(1, 2).
edge(1, 1).
edge(1, 1).
edge(1, 1).
edge(1, 1).
edge(1, 1).
edge(1, 1).
edge(1, 25).
edge(1, 54).
edge(1, 58).
edge(1, 66).
edge(1, 56).
edge(2, 3).
edge(2, 2).
edge(3, 1).
edge(3, 1).
edge(3, 1).
edge(3, 1).
edge(3, 1).
edge(3, 1).
edge(3, 2).
edge(3, 2).
edge(3, 2).
edge(3, 2).
edge(3, 15).
edge(3, 47).
edge(3, 10).
edge(3, 21).
edge(4, 1).
edge(4, 1).
edge(4, 10).
edge(4, 2).
edge(4, 3).
edge(5, 1).
edge(5, 1).
edge(6, 1).
edge(6, 1).
edge(6, 1).
edge(6, 1).
edge(6, 1).
edge(6, 1).
edge(6, 1).
edge(6, 1).
edge(6, 1).
edge(6, 1).
edge(6, 10).
edge(6, 10).
edge(6, 10).
edge(6, 21).
edge(6, 25).
edge(6, 6).
edge(6, 37).
edge(6, 2).
edge(6, 2).
edge(6, 2).
edge(6, 54).
edge(6, 56).
edge(6, 56).
edge(7, 2).
edge(8, 2).
edge(8, 2).
edge(8, 1).
edge(8, 21).
edge(8, 35).
edge(8, 10).
edge(8, 10).
edge(8, 68).
edge(8, 15).
edge(9, 2).
edge(11, 1).
edge(12, 10).
edge(12, 10).
edge(12, 2).
edge(12, 37).
edge(12, 56).
edge(13, 2).
edge(14, 6).
edge(14, 10).
edge(14, 10).
edge(14, 37).
edge(14, 2).
edge(14, 3).
edge(15, 15).
edge(16, 10).
edge(17, 10).
edge(18, 1).
edge(18, 1).
edge(18, 1).
edge(18, 2).
edge(19, 10).
edge(19, 1).
edge(20, 2).
edge(22, 10).
edge(22, 27).
edge(22, 1).
edge(22, 1).
edge(22, 15).
edge(22, 37).
edge(23, 1).
edge(23, 37).
edge(24, 10).
edge(24, 2).
edge(26, 21).
edge(28, 10).
edge(29, 1).
edge(30, 2).
edge(30, 2).
edge(30, 1).
edge(31, 21).
edge(31, 1).
edge(31, 1).
edge(31, 1).
edge(31, 2).
edge(32, 3).
edge(32, 1).
edge(32, 2).
edge(33, 1).
edge(33, 1).
edge(34, 2).
edge(36, 1).
edge(36, 1).
edge(36, 1).
edge(38, 35).
edge(39, 1).
edge(40, 2).
edge(41, 37).
edge(41, 1).
edge(42, 37).
edge(43, 37).
edge(44, 2).
edge(44, 2).
edge(44, 48).
edge(45, 2).
edge(45, 1).
edge(46, 37).
edge(46, 21).
edge(46, 31).
edge(49, 1).
edge(50, 2).
edge(51, 1).
edge(52, 2).
edge(52, 1).
edge(52, 1).
edge(53, 1).
edge(55, 10).
edge(57, 2).
edge(59, 10).
edge(59, 1).
edge(60, 1).
edge(60, 1).
edge(60, 54).
edge(60, 2).
edge(61, 31).
edge(62, 25).
edge(63, 10).
edge(64, 25).
edge(64, 10).
edge(65, 1).
edge(65, 1).
edge(67, 47).
edge(69, 34).
edge(70, 10).
edge(71, 10).
edge(72, 6).
edge(73, 1).
edge(74, 1).
edge(75, 1).
edge(76, 2).
edge(77, 2).
edge(78, 68).
edge(78, 2).
edge(79, 1).
edge(80, 2).
edge(81, 31).
edge(82, 2).
edge(83, 1).
edge(84, 1).
edge(85, 2).
edge(86, 1).
edge(87, 56).
edge(88, 3).
edge(88, 1).
edge(89, 84).
edge(89, 1).
edge(90, 32).
edge(91, 20).
edge(92, 10).
edge(93, 1).
edge(93, 1).
edge(94, 1).
edge(95, 2).
edge(96, 37).
edge(97, 1).
edge(98, 37).
edge(99, 1).
edge(100, 1).
